12
Properties=species:S:1:pos:R:3 energy_U0=-11281.464557136416 pbc="F F F"
O       -0.11722830       1.35342944      -0.08436147
N        0.05413367      -0.03902713      -0.06147407
C       -1.07603781      -0.65200337       0.06360453
C       -1.13635149      -2.09310260       0.10996605
C       -2.33540061      -2.67435433       0.24071380
O       -3.51309459      -2.00745237       0.33425481
N       -3.51911516      -0.61158145       0.29550672
C       -2.38847584      -0.01440724       0.17083355
H        0.78784487       1.66723008      -0.17953254
H       -0.23420587      -2.68582843       0.04062084
H       -2.50722487      -3.74281133       0.28720763
H       -2.46237389       1.06644071       0.14743597
12
Properties=species:S:1:pos:R:3 energy_U0=-11283.391531437732 pbc="F F F"
O       -0.08273008       1.32206511       0.00757882
N        0.01808945      -0.05764082       0.00221147
C       -1.14020631      -0.61297620       0.00916785
C       -2.49187237      -0.08333567       0.02120382
C       -3.32269138      -1.14821983       0.02399342
N       -2.62202372      -2.35016489       0.01464494
C       -1.24386168      -2.12703348       0.00489877
O       -0.38622053      -2.97419392      -0.00443320
H        0.84032154       1.60160168       0.00149091
H       -2.76794785       0.95671754       0.02676160
H       -4.40339297      -1.16200404       0.03217299
H       -3.02423060      -3.27149181       0.01466100
12
Properties=species:S:1:pos:R:3 energy_U0=-11281.524258917354 pbc="F F F"
O       -0.12996420       1.37539308       0.06929656
N        0.03940178      -0.00397223       0.18384660
C       -1.05007255      -0.61476293       0.02113584
C       -2.50408192      -0.33567572      -0.25703450
O       -2.77603668      -1.76320919      -0.18677075
C       -1.39178134      -2.09481425       0.06984054
C       -0.80242789      -2.94313837      -0.97039298
N       -0.33303323      -3.61256369      -1.78628476
H        0.76516758       1.70941193       0.20024970
H       -3.03976787       0.22994260       0.51367683
H       -2.72816093       0.08415058      -1.24454125
H       -1.25887675      -2.57407770       1.04792849
12
Properties=species:S:1:pos:R:3 energy_U0=-11285.116597254748 pbc="F F F"
N       -0.06164906       1.29360694       0.35783932
C       -0.00496292       0.09816573      -0.04051359
N       -1.12759811      -0.69361189      -0.16385556
C       -1.19572495      -2.02178260      -0.59048067
O       -2.25404064      -2.60749267      -0.65410594
C        0.11788852      -2.57186450      -0.92965829
C        1.20283964      -1.80275454      -0.80921860
O        1.18715572      -0.51436345      -0.38547088
H        0.86411565       1.71395207       0.38338056
H       -2.00129359      -0.25118835       0.08682303
H        0.18167363      -3.59406870      -1.27207406
H        2.21402682      -2.11900796      -1.03522124
12
Properties=species:S:1:pos:R:3 energy_U0=-11285.19104760691 pbc="F F F"
N       -0.08255812       1.33863536      -0.12887278
C       -0.04297379       0.07217308       0.01349045
N        1.13036976      -0.70376116       0.08107973
C        1.23475927      -2.06793157       0.23346567
O        2.26902259      -2.66823657       0.28382016
O        0.03803115      -2.74042042       0.32986023
C       -1.14310372      -2.06079195       0.27326947
C       -1.24471160      -0.73943239       0.12572085
H        0.85084451       1.74856544      -0.19112802
H        2.02376853      -0.23678616       0.01317355
H       -1.98063670      -2.74022720       0.36435307
H       -2.20482979      -0.24678503       0.08648823
12
Properties=species:S:1:pos:R:3 energy_U0=-11285.219374659762 pbc="F F F"
N       -0.08029651       1.26433311       0.42676453
C       -0.01745725       0.09424465      -0.04705398
N       -1.17892913      -0.64390516      -0.23917376
C       -1.17789354      -1.90670979      -0.74474264
C       -0.03460289      -2.52896924      -1.09546230
C        1.23011402      -1.84545100      -0.93414454
O        2.32666115      -2.24648069      -1.19237124
O        1.13737519      -0.53420086      -0.40117763
H        0.84993998       1.66830517       0.50573527
H       -2.03108880      -0.17595993       0.02384895
H       -2.15249402      -2.37008717      -0.84361705
H       -0.02143431      -3.53023780      -1.49749898
12
Properties=species:S:1:pos:R:3 energy_U0=-11285.296328459437 pbc="F F F"
N       -0.05095177       1.28327613       0.34454092
C       -0.07502247       0.07674618      -0.03132527
O        1.11821364      -0.55410415      -0.43246421
C        1.22415698      -1.84486873      -0.85629015
O        2.27995822      -2.30806251      -1.18305988
N        0.03638022      -2.55131379      -0.87795180
C       -1.17696340      -2.01305797      -0.50256377
C       -1.26746574      -0.74268313      -0.08691855
H        0.89677883       1.65911978       0.30202239
H        0.11442825      -3.50485196      -1.19197532
H       -2.02529789      -2.68225206      -0.56964067
H       -2.20292272      -0.29579635       0.21253664
12
Properties=species:S:1:pos:R:3 energy_U0=-11286.25324406037 pbc="F F F"
O       -0.01771231      -0.08795498       0.00316013
C       -0.02548595       1.12197087       0.00949018
N       -1.20219572       1.86830013       0.02928799
C       -1.23324933       3.23902921       0.03687821
C       -0.10841237       3.97914983       0.02561466
C        1.19355082       3.32299975       0.00460592
O        2.27643613       3.86803439      -0.00698769
N        1.10575248       1.91398078      -0.00149554
H       -2.04934386       1.32272662       0.03781891
H       -2.22393398       3.67794680       0.05253677
H       -0.13359549       5.05854332       0.03164228
H        1.98613847       1.41629279      -0.01591358
12
Properties=species:S:1:pos:R:3 energy_U0=-11284.950471743068 pbc="F F F"
C       -0.02170856       1.49011460       0.08168546
C       -0.00673568       0.00547095      -0.05717249
N       -0.10514293      -0.61006633      -1.16493308
C       -0.07809540      -2.03015587      -1.17102190
O       -0.16753045      -2.65075335      -2.19354869
N        0.05946404      -2.69564886       0.08361634
C        0.14873000      -1.97542873       1.11981969
O        0.12691018      -0.61536129       1.16343734
H        0.90477443       1.83299297       0.55324054
H       -0.12848939       1.94260759      -0.90268490
H       -0.84953324       1.79897343       0.72791204
H        0.25611884      -2.38963518       2.11913618
12
Properties=species:S:1:pos:R:3 energy_U0=-11284.842061581146 pbc="F F F"
N        0.08603000       1.37088552       0.17041230
C       -0.05025918       0.01579286       0.05940795
C       -1.19624374      -0.70321577       0.02431520
C       -1.15663369      -2.15317253      -0.02157536
O       -2.13100328      -2.87132814      -0.05128487
N        0.16203981      -2.73019587      -0.03733327
C        1.16315505      -1.96382249      -0.01145247
O        1.16556743      -0.59362785       0.03681396
H        0.96205373       1.75409429      -0.15078545
H       -0.72778978       1.92091003      -0.05367261
H       -2.15830100      -0.20781782       0.03585365
H        2.18853917      -2.32297348      -0.02481056
12
Properties=species:S:1:pos:R:3 energy_U0=-11285.066147345056 pbc="F F F"
N        0.05904601       1.33599240       0.12243035
C       -0.03847541      -0.01335858       0.04262760
N       -1.16513627      -0.62573881       0.02227852
C       -1.18901705      -2.02871424      -0.00575607
O       -2.22868984      -2.65231577      -0.02089654
C        0.13461180      -2.68466936      -0.02176723
C        1.24224993      -1.94395114      -0.01037795
O        1.20534556      -0.57830266       0.02277797
H        0.93501704       1.77339062      -0.10752290
H       -0.79133073       1.85087019      -0.03179282
H        0.18517420      -3.76484589      -0.04730200
H        2.26301620      -2.30368903      -0.02395318
12
Properties=species:S:1:pos:R:3 energy_U0=-11284.27503071917 pbc="F F F"
O        0.05474663       1.33060902       0.00775791
C       -0.05183629      -0.00104645       0.00123758
C       -1.20068807      -0.68875801       0.00375079
C       -1.16273512      -2.14269074      -0.00426307
N       -2.22384931      -2.85288799      -0.00219898
N        0.13817721      -2.73236422      -0.01432285
C        1.15383390      -1.98482351      -0.01582660
O        1.17114802      -0.61156744      -0.00860722
H        0.99118577       1.56552344       0.00404007
H       -2.14813086      -0.16994011       0.01164587
H       -1.96031528      -3.83983330      -0.00881209
H        2.17070075      -2.36472961      -0.02324895
12
Properties=species:S:1:pos:R:3 energy_U0=-11285.051915790167 pbc="F F F"
O       -0.13462864       1.35174893       0.01093405
C        0.04717620       0.01674303       0.00270288
C        1.21219579      -0.66713193      -0.00752209
C        1.21286076      -2.13111878      -0.01544936
O        2.22870335      -2.79497949      -0.02463571
N       -0.06691796      -2.76493481      -0.01168714
C       -1.12061289      -2.04088844      -0.00186802
N       -1.14143329      -0.66676458       0.00566791
H        0.72681967       1.78473879       0.00850611
H        2.16544623      -0.15277689      -0.01007858
H       -2.10764947      -2.50108178       0.00117222
H       -2.00648632      -0.14923643       0.01331833
12
Properties=species:S:1:pos:R:3 energy_U0=-11285.40800398768 pbc="F F F"
O       -0.10276496       1.31874920       0.01022874
C        0.02713675      -0.01775481       0.00272809
N        1.17887476      -0.58295528      -0.00672897
C        1.26075152      -1.99297896      -0.01404659
O        2.33245870      -2.56271575      -0.02414093
C       -0.02692024      -2.71266987      -0.01083276
C       -1.18770558      -2.03772901      -0.00070355
N       -1.17665619      -0.65668411       0.00641738
H        0.80082418       1.66682803       0.00679838
H       -0.00631668      -3.79397256      -0.01674785
H       -2.16753514      -2.49857261       0.00238606
H       -2.02500275      -0.11419059       0.01403643
12
Properties=species:S:1:pos:R:3 energy_U0=-11285.213333732063 pbc="F F F"
C       -0.02459543       1.48607620       0.03286331
C        0.00305140      -0.00702366      -0.02281322
N       -0.03577510      -0.59926117      -1.18083480
C       -0.01035156      -1.97041897      -1.23666166
O       -0.03856943      -2.66653639      -2.19918247
O        0.05936115      -2.65062472       0.04135595
C        0.09291254      -1.92288031       1.14387355
N        0.07002608      -0.63993077       1.21048013
H        0.86978992       1.84788751       0.55117597
H       -0.07794818       1.90835150      -0.96937594
H       -0.88281562       1.81257984       0.62976677
H        0.14494577      -2.53285211       2.04372600
12
Properties=species:S:1:pos:R:3 energy_U0=-11285.40939176837 pbc="F F F"
N        0.04610680       1.35550274       0.08667178
C       -0.03265127       0.00443106       0.03108324
C       -1.21429391      -0.69707247       0.01653611
C       -1.21906202      -2.11923480      -0.01029656
O       -2.12458004      -2.90214668      -0.02462371
O        0.11796105      -2.69147499      -0.02425780
C        1.17893501      -1.90289824      -0.01369541
N        1.20440188      -0.62013095       0.01270670
H        0.95001910       1.77467164      -0.04990429
H       -0.77241259       1.92302262      -0.04437575
H       -2.17729966      -0.20349156       0.02884741
H        2.10920530      -2.46623485      -0.03128431
12
Properties=species:S:1:pos:R:3 energy_U0=-11285.3733094705 pbc="F F F"
N       -0.01315623       1.34500229       0.00798982
C        0.01144890      -0.00370123       0.00081961
N       -1.14570083      -0.62888163       0.00403856
C       -1.20213941      -1.98357727      -0.00275671
O       -2.17223592      -2.67992461      -0.00104290
O        0.06481841      -2.70534576      -0.01377598
C        1.20719696      -2.03547812      -0.01666136
C        1.27612047      -0.69019655      -0.00993614
H        0.82757862       1.89256957       0.00630470
H       -0.90814197       1.80559595       0.01557083
H        2.07597811      -2.68736742      -0.02502124
H        2.22512920      -0.17273344      -0.01256282
12
Properties=species:S:1:pos:R:3 energy_U0=-11284.602710229676 pbc="F F F"
O        0.02851388       1.32916210       0.00819530
C       -0.02570636      -0.00934755       0.00097178
C       -1.20246251      -0.67793270       0.00373164
C       -1.20282344      -2.11469176      -0.00438789
N       -2.21659243      -2.87032277      -0.00299142
O        0.10390305      -2.69496039      -0.01488510
C        1.18320822      -1.91561889      -0.01643271
N        1.21169847      -0.63713265      -0.00943163
H        0.96488412       1.56984447       0.00434490
H       -2.15456836      -0.16788144       0.01189191
H       -1.94894245      -3.85322921      -0.01001103
H        2.10102209      -2.49684862      -0.02488172
12
Properties=species:S:1:pos:R:3 energy_U0=-11285.684362824146 pbc="F F F"
O        0.01392883       1.32611209       0.00784062
C       -0.00936511      -0.01484325       0.00091931
C       -1.20135430      -0.68532714       0.00389427
C       -1.21609771      -2.12055684      -0.00363972
O       -2.16485367      -2.87988912      -0.00226776
N        0.11067641      -2.66013213      -0.01359784
C        1.22520797      -1.90807694      -0.01572894
N        1.22603595      -0.60973266      -0.00895010
H        0.94627187       1.58348192       0.00410076
H       -2.14403686      -0.15675046       0.01185495
H        0.16453942      -3.66980409      -0.01914570
H        2.17267179      -2.44093060      -0.02365332
12
Properties=species:S:1:pos:R:3 energy_U0=-11284.59207057774 pbc="F F F"
O       -0.04129770       1.31125308       0.00987552
C        0.01885528      -0.02340739       0.00253098
N        1.17585649      -0.59879636      -0.00705142
C        1.25749377      -1.96763348      -0.01475199
N        2.34496213      -2.60963569      -0.02424282
O        0.02858814      -2.70668098      -0.01169435
C       -1.13935890      -2.06103568      -0.00168442
C       -1.23896121      -0.72074418       0.00594302
H        0.87652429       1.62558049       0.00634302
H        2.16685145      -3.61229704      -0.02851438
H       -1.98341215      -2.74232205      -0.00051039
H       -2.18615393      -0.20388308       0.01401209
12
Properties=species:S:1:pos:R:3 energy_U0=-11285.74332989766 pbc="F F F"
O       -0.04546972       1.31730388       0.00992846
C       -0.00201857      -0.02124376       0.00277163
N        1.16889413      -0.59542688      -0.00679931
C        1.26356879      -1.96996743      -0.01441013
O        2.29247131      -2.60736554      -0.02351728
N        0.02021204      -2.66444026      -0.01095809
C       -1.18504437      -2.05222363      -0.00099146
C       -1.25926592      -0.69669927       0.00640955
H        0.87783276       1.61372915       0.00623585
H        0.09850447      -3.67062843      -0.01658174
H       -2.05765740      -2.69520006       0.00063105
H       -2.19451281      -0.15886473       0.01446722
12
Properties=species:S:1:pos:R:3 energy_U0=-11285.681968222176 pbc="F F F"
O        0.02720920       1.34399825      -0.03409522
C        0.05231459       0.00441544      -0.05685494
C        0.04601546      -0.65881357      -1.27810305
C        0.07367513      -2.04564765      -1.19273214
O        0.07017585      -2.77545629      -2.31656444
N        0.10427213      -2.71055411      -0.03207793
C        0.10684636      -1.95489494       1.06224085
N        0.08254544      -0.62661442       1.12257094
H        0.03688206       1.59745132       0.90021217
H        0.02145535      -0.13542774      -2.22319329
H        0.09209560      -3.70175065      -2.03592108
H        0.13158443      -2.48158084       2.01328266
12
Properties=species:S:1:pos:R:3 energy_U0=-11285.26264076354 pbc="F F F"
O        0.12974189       1.30639828      -0.01722648
C        0.08473897      -0.03733453      -0.02659873
C       -0.04428439      -0.71736500      -1.24233606
N       -0.09020774      -2.04644264      -1.26809120
C       -0.01054628      -2.70387491      -0.11455357
C        0.11821868      -2.00515350       1.09056935
O        0.19749782      -2.68418292       2.24831022
N        0.16589158      -0.67673582       1.13688675
H        0.21977629       1.57882289       0.90606713
H       -0.10853349      -0.17345726      -2.17809655
H       -0.04719498      -3.78744746      -0.12635147
H        0.28098803      -2.02875922       2.95417266
12
Properties=species:S:1:pos:R:3 energy_U0=-11285.662865829185 pbc="F F F"
O        0.12808656       1.30154355       0.03171766
C        0.08619058      -0.03783645       0.03600798
N        0.14774016      -0.66094021      -1.13600964
C        0.10320139      -1.99813373      -1.09171511
O        0.16420017      -2.63932492      -2.26667975
N        0.00501638      -2.76822904      -0.01649786
C       -0.05446762      -2.10398858       1.14407550
C       -0.01879283      -0.72439030       1.24825280
H        0.20045322       1.57361577      -0.89439252
H        0.23241603      -1.95886774      -2.94948909
H       -0.13523023      -2.71833082       2.03768713
H       -0.06772373      -0.20130291       2.19263193
12
Properties=species:S:1:pos:R:3 energy_U0=-11285.25744338881 pbc="F F F"
C       -0.01568566       1.47670780       0.06313930
C       -0.00472897      -0.00905990      -0.06390487
N       -0.10890073      -0.60967357      -1.20709446
C       -0.08024677      -1.97929069      -1.12974945
N        0.03621139      -2.71850886      -0.07070671
C        0.14769480      -2.08398705       1.14475349
O        0.26253361      -2.57560237       2.22068981
O        0.12079145      -0.64063270       1.10077011
H        0.91047186       1.81514453       0.53809647
H       -0.11998116       1.92937249      -0.92154290
H       -0.84169589       1.78737977       0.71057694
H       -0.16730018      -2.49455645      -2.08487989
12
Properties=species:S:1:pos:R:3 energy_U0=-11285.267157853621 pbc="F F F"
N        0.05302715       1.34303081       0.06608216
C       -0.05571536       0.00051591       0.02263408
C       -1.24060141      -0.71215883       0.01463186
C       -1.10990724      -2.10400177      -0.00946019
N        0.01935825      -2.78250188      -0.02431238
C        1.19274754      -2.11088626      -0.01633165
O        2.31162155      -2.51793847      -0.02567186
O        1.10597296      -0.62175669       0.00496367
H        0.96429311       1.75775299      -0.03374165
H       -0.76044996       1.92374149      -0.03303780
H       -2.20148121      -0.21895605       0.02896449
H       -2.01577334      -2.71008763      -0.01793418
12
Properties=species:S:1:pos:R:3 energy_U0=-11284.798142404103 pbc="F F F"
N        0.07034425       1.34703232       0.14560304
C       -0.05806614      -0.00456976       0.05042412
C       -1.23259271      -0.71398976       0.01962369
N       -1.22082269      -2.06892907      -0.01907610
C       -0.08714004      -2.70610917      -0.02982735
C        1.20892783      -2.05788321      -0.00800838
O        2.30591530      -2.53759807      -0.02240647
O        1.12041912      -0.63425954       0.03098251
H        0.96957419       1.73291398      -0.09658605
H       -0.73179360       1.91131387      -0.08073463
H       -2.19088447      -0.20997588       0.03114500
H       -0.08211830      -3.79074371      -0.06088204
12
Properties=species:S:1:pos:R:3 energy_U0=-11285.538346526739 pbc="F F F"
N        0.04257034       1.31867150      -0.05873479
C       -0.05562388      -0.02471974      -0.02311382
N       -1.21881899      -0.61446975      -0.00725619
C       -1.16909407      -1.97610457      -0.00278462
C       -0.02787668      -2.71825738      -0.00971263
C        1.24813424      -2.06663377      -0.01966211
O        2.35958536      -2.50757675      -0.02212245
O        1.13664260      -0.62664663      -0.02564126
H        0.93946385       1.75554425       0.05966032
H       -0.79984911       1.85525665       0.05122769
H       -2.13805664      -2.46865663       0.00831456
H       -0.03522992      -3.79899619      -0.00472911
12
Properties=species:S:1:pos:R:3 energy_U0=-11284.454816346635 pbc="F F F"
O        0.06096437       1.31177261       0.00736036
C       -0.03595363      -0.01168269       0.00095267
C       -1.21398712      -0.68908440       0.00398848
C       -1.08682277      -2.10393443      -0.00417483
N        0.03789198      -2.75983397      -0.01391839
C        1.21723184      -2.05235135      -0.01669243
N        2.40325312      -2.48546363      -0.02580830
O        1.14027344      -0.62283183      -0.00881335
H        1.00063751       1.54549264       0.00334324
H       -2.16124570      -0.17377557       0.01198984
H       -1.99392432      -2.70747780      -0.00230065
H        2.36852268      -3.50319882      -0.03113021
12
Properties=species:S:1:pos:R:3 energy_U0=-11284.041584238468 pbc="F F F"
O        0.07511828       1.31920966       0.00715792
C       -0.03450749      -0.01071039       0.00110315
C       -1.20353512      -0.68857491       0.00408311
N       -1.20703475      -2.06648446      -0.00281121
C       -0.08209077      -2.69555418      -0.01210738
C        1.22221011      -2.04412280      -0.01599969
N        2.33431136      -2.64676210      -0.02503307
O        1.15859522      -0.63650465      -0.00857262
H        1.01377283       1.54901189       0.00318470
H       -2.14958743      -0.16689007       0.01186077
H       -0.06980231      -3.78104813      -0.01758455
H        3.11963771      -1.99637356      -0.02605306
12
Properties=species:S:1:pos:R:3 energy_U0=-11285.181959003976 pbc="F F F"
O        0.03724378       1.33650853      -0.11188304
C        0.05596157      -0.01297857      -0.05322977
C        0.05879316      -0.75573430      -1.23640991
N        0.07710858      -2.08641916      -1.20544317
C        0.09241952      -2.67143371      -0.01304602
O        0.11113301      -4.02092099       0.04560579
C        0.08959033      -1.92867833       1.17013366
N        0.07127434      -0.59799242       1.13916700
H        0.03851654       1.64912022       0.80281205
H        0.04615420      -0.26469634      -2.20410474
H        0.10987399      -4.33353127      -0.86908979
H        0.10223473      -2.41971549       2.13782890
12
Properties=species:S:1:pos:R:3 energy_U0=-11285.074501240566 pbc="F F F"
O        0.04028538       1.35869122       0.16498241
C        0.05697175       0.00284433       0.04468923
C        0.05493322      -0.68650906      -1.16573575
N        0.07174076      -2.01589703      -1.23909048
C        0.09088070      -2.65772960      -0.07656281
O        0.10772858      -4.00015200      -0.14636404
N        0.09483217      -2.11123215       1.14255703
C        0.07784611      -0.78240639       1.19645396
H        0.02672600       1.75790631      -0.71165572
H        0.03914038      -0.14546790      -2.11268155
H        0.12021236      -4.31625455       0.76665581
H        0.08068009      -0.31429348       2.17751793
12
Properties=species:S:1:pos:R:3 energy_U0=-11284.457537485236 pbc="F F F"
N        0.02786243       1.41757433       0.15730985
C       -0.03085480       0.02903776       0.04402821
C       -1.17571650      -0.69479668      -0.00000410
O       -1.16141399      -2.05149640      -0.03462297
C        0.02541116      -2.75722293      -0.02905923
O        0.01152754      -3.95921136      -0.05547377
C        1.21468377      -1.89810789       0.00366662
N        1.19303554      -0.60948420       0.03819587
H        0.90779181       1.78259941      -0.18099138
H       -0.76013783       1.91389799      -0.23341533
H       -2.17982340      -0.29148209      -0.00671191
H        2.17219831      -2.41280007      -0.00524170
12
Properties=species:S:1:pos:R:3 energy_U0=-11284.520178095863 pbc="F F F"
N        0.02151913       1.44662680       0.14387818
C       -0.01940317       0.04782868       0.03059246
C       -1.14574634      -0.70399232       0.00595421
O       -1.10966349      -2.04480877      -0.00338287
C        0.11250130      -2.75487021      -0.03178111
O        0.04921479      -3.94748858      -0.06873105
N        1.27685462      -2.00285534      -0.01088232
C        1.19956700      -0.71096189       0.02771528
H        0.71749055       1.87406686      -0.45467370
H       -0.87432245       1.89008923      -0.01352278
H       -2.15858523      -0.31455786       0.00911886
H        2.14502031      -0.16411647       0.05901198
12
Properties=species:S:1:pos:R:3 energy_U0=-11284.994418131497 pbc="F F F"
O       -0.00541320       1.38647532       0.00842222
C       -0.02228535       0.03075666       0.00114627
C       -1.19783017      -0.65696479       0.00424318
N       -1.14353707      -2.02545619      -0.00350941
C        0.03305261      -2.77557090      -0.01442165
O        0.03118554      -3.99567775      -0.02106693
C        1.21250768      -1.90732765      -0.01658227
N        1.17788634      -0.60713175      -0.00931014
H        0.92611395       1.64152497       0.00437213
H       -2.17037558      -0.18517933       0.01246210
H       -1.99819136      -2.56539943      -0.00148044
H        2.17874326      -2.40447464      -0.02491744
12
Properties=species:S:1:pos:R:3 energy_U0=-11284.900511638327 pbc="F F F"
O       -0.03842037       1.41330566       0.00882862
C       -0.00809096       0.04866220       0.00105785
C       -1.16652781      -0.66826545       0.00406358
N       -1.09061891      -2.02444585      -0.00376206
C        0.10883032      -2.77103630      -0.01486651
O        0.06639215      -3.98209355      -0.02184276
N        1.27437928      -2.01182920      -0.01801678
C        1.19577245      -0.71245130      -0.01040626
H        0.86383418       1.74915694       0.00424505
H       -2.14874422      -0.21257805       0.01239877
H       -1.93270870      -2.58231389      -0.00181618
H        2.14597871      -0.16781115      -0.01319343
12
Properties=species:S:1:pos:R:3 energy_U0=-11283.876846507475 pbc="F F F"
O        0.02441812       1.35835567       0.28631848
C       -0.02834790       0.03178563       0.02088502
C       -1.19564749      -0.62775718      -0.08544157
O       -1.22371851      -1.96804049      -0.35417422
C       -0.04952192      -2.66800639      -0.52123984
N       -0.01663543      -3.91330040      -0.77223257
C        1.16946047      -1.87016413      -0.38828153
N        1.18527446      -0.60880852      -0.13513574
H        0.96167364       1.58964403       0.31168528
H       -2.17906180      -0.19547777       0.02352865
H       -0.95849577      -4.30244346      -0.82927068
H        2.10692145      -2.40388192      -0.51661661
12
Properties=species:S:1:pos:R:3 energy_U0=-11285.5199244184 pbc="F F F"
O       -0.01160743      -0.06435635      -0.00027459
C       -0.02593294       1.15137226       0.01006019
C        1.16874185       1.96171280       0.00282874
C        1.31195857       3.31776031       0.01236913
N        2.65411219       3.58954695      -0.00149132
C        3.42057196       2.40372197      -0.01969487
O        4.62588151       2.31194419      -0.03503900
N        2.45165395       1.41907859      -0.01667240
H       -0.97272340       1.73053839       0.02577957
H        0.55772126       4.08711462       0.02746625
H        3.08881465       4.49646795       0.00047538
H        2.64554357       0.43199345      -0.02726786
12
Properties=species:S:1:pos:R:3 energy_U0=-11284.670874751668 pbc="F F F"
N        0.35327114       1.31930819       0.41388188
C        0.01251241       0.02114556       0.15583238
N       -1.09186170      -0.59577392       0.42774883
C       -0.84568639      -1.91098283       0.01941777
C       -1.84532884      -2.97489588       0.14615235
O       -1.66586907      -4.12035680      -0.20328993
C        0.41116454      -1.99845262      -0.48647767
O        0.98123491      -0.75642710      -0.40456542
H        1.04620974       1.71694369      -0.20226205
H       -0.44029501       1.91776876       0.58591707
H       -2.80115692      -2.63756512       0.59838930
H        1.00679659      -2.78603571      -0.91153052
12
Properties=species:S:1:pos:R:3 energy_U0=-11284.89194005173 pbc="F F F"
O        0.10581578       1.30737941       0.17228385
C        0.07212176      -0.02232257       0.02005858
N        0.09562213      -0.69434284      -1.09083623
C        0.03981052      -2.02694473      -0.69308023
C        0.04208906      -3.16582834      -1.60643072
O        0.09236446      -3.11036678      -2.81268398
C       -0.01592061      -2.11583703       0.67835721
N        0.00453362      -0.81653069       1.13155627
H        0.15158996       1.68368288      -0.71659093
H       -0.00877890      -4.14441982      -1.07349817
H       -0.06666993      -2.95801284       1.34836505
H       -0.02348335      -0.49795416       2.08585852
12
Properties=species:S:1:pos:R:3 energy_U0=-11284.894144173997 pbc="F F F"
O        0.07211327       1.36490471      -0.04442391
C        0.06484084       0.02158703      -0.08125065
C        0.01363934      -0.77933001      -1.18231466
N        0.03055676      -2.08276919      -0.66573474
C       -0.00583425      -3.27582628      -1.38760400
O        0.01183306      -4.36506576      -0.88094640
C        0.09061765      -1.96719216       0.70552445
N        0.11232576      -0.71794766       1.08404215
H        0.11361397       1.61430231       0.88733675
H       -0.03131294      -0.57615477      -2.23688805
H       -0.05208103      -3.09563193      -2.47592353
H        0.11444743      -2.83893765       1.33897753
12
Properties=species:S:1:pos:R:3 energy_U0=-11284.423033447758 pbc="F F F"
N        0.15746377       1.34112032       0.15859889
C       -0.05516020      -0.00728079       0.04725457
C       -1.17568785      -0.80584223       0.00140012
N       -0.77916769      -2.11587942      -0.02814617
C        0.52030694      -2.09292794      -0.00234377
O        1.02860250      -0.80121044       0.04576296
C        1.50526148      -3.16827084      -0.01956430
O        1.23948814      -4.34670798      -0.06191716
H        1.04819195       1.66270128      -0.19263378
H       -0.61530285       1.91893742      -0.13547920
H       -2.21254986      -0.51095907      -0.01090512
H        2.55053460      -2.79253247       0.01115151
12
Properties=species:S:1:pos:R:3 energy_U0=-11284.792999452146 pbc="F F F"
N        0.07935078       1.30765905       0.12842837
C       -0.03560278      -0.03855379       0.04401999
N       -1.14740995      -0.73691570       0.01710243
C       -0.70049337      -2.03452556      -0.00791053
C        0.66502178      -2.07687616      -0.00043094
O        1.09701240      -0.75426596       0.03379119
C        1.61879306      -3.15741778      -0.02677269
O        2.82654892      -3.04293789      -0.02501334
H        0.95875055       1.71525695      -0.14473336
H       -0.75150402       1.83071015      -0.09477089
H       -1.38587542      -2.86867555      -0.03342152
H        1.12031333      -4.15172672      -0.05078924
12
Properties=species:S:1:pos:R:3 energy_U0=-11284.971234030605 pbc="F F F"
O        0.07525441       1.31684582       0.19048958
C        0.06912910      -0.00864576       0.03005280
N        0.09115330      -0.65545674      -1.11889686
C        0.07305172      -1.97666861      -0.76802088
C        0.03999588      -2.13479092       0.60276323
N        0.03802440      -0.82457269       1.10081684
C        0.01171526      -3.31014738       1.44405798
O        0.01281329      -4.45304540       1.03615283
H        0.09885014       1.70205484      -0.69560594
H        0.08441513      -2.76336575      -1.50609398
H        0.01759906      -0.53720732       2.06539165
H       -0.01209005      -3.09035091       2.53829829
12
Properties=species:S:1:pos:R:3 energy_U0=-11284.416938097289 pbc="F F F"
N        0.02593845       1.38236372       0.15022391
C       -0.02965911       0.00325544       0.04641211
C       -1.10723258      -0.84548319       0.01183894
O       -0.63334835      -2.12258343      -0.02113883
C        0.70642565      -1.99176740      -0.00310117
C        1.56300974      -3.18138768      -0.03048131
O        1.15923244      -4.31889815      -0.07349562
N        1.11893307      -0.75057998       0.03543283
H        0.91637395       1.75360635      -0.15068490
H       -0.74767959       1.87375015      -0.27307918
H       -2.17567839      -0.72051957       0.00915553
H        2.63915706      -2.91878326      -0.00763346
12
Properties=species:S:1:pos:R:3 energy_U0=-11284.743583575124 pbc="F F F"
O        0.11117744       1.35078947      -0.10104743
C        0.06960027       0.00709841      -0.06817990
C       -0.00981811      -0.83168483      -1.17004308
N       -0.02428645      -2.08921145      -0.63324594
C        0.04366756      -1.97311964       0.72756798
C        0.04617045      -3.15476567       1.58213002
O        0.10333521      -3.15345838       2.78842029
N        0.10201248      -0.69094456       1.08424606
H        0.16441669       1.64693155       0.81673091
H       -0.05397529      -0.63957385      -2.22754512
H       -0.07642291      -2.95222550      -1.15057291
H       -0.01210056      -4.10763653       1.00224777
12
Properties=species:S:1:pos:R:3 energy_U0=-11284.620452053365 pbc="F F F"
N       -0.10411397       1.22916964      -0.42941588
C       -0.03155989       0.01881462      -0.04361457
N       -1.15508159      -0.69583345       0.31055533
C       -1.09676341      -2.01056482       0.73192519
C        0.07316245      -2.64369078       0.81100642
O        1.26147508      -2.02338954       0.48044257
C        1.28675285      -0.73127507       0.05761881
O        2.32969529      -0.21314695      -0.22453449
H        0.83788086       1.56058191      -0.63924677
H       -2.03496749      -0.20702475       0.24703479
H       -2.02892230      -2.49154233       0.98938587
H        0.21518727      -3.66407734       1.12744347
12
Properties=species:S:1:pos:R:3 energy_U0=-11284.448013500127 pbc="F F F"
N       -0.04319197       1.25512288       0.35666850
C       -0.01275307       0.05165855      -0.01712101
O        1.16487994      -0.55239451      -0.41094333
C        1.18752023      -1.86081579      -0.81556427
C        0.08962712      -2.61199446      -0.85074000
N       -1.13289070      -2.06702903      -0.46699844
C       -1.29485462      -0.76847550      -0.04074822
O       -2.36532938      -0.31651809       0.28772394
H        0.89278633       1.66393821       0.31575629
H        2.17588732      -2.19287447      -1.09258426
H        0.09870161      -3.64385115      -1.16825045
H       -1.97523931      -2.62255237      -0.48754873
12
Properties=species:S:1:pos:R:3 energy_U0=-11283.489247524945 pbc="F F F"
N       -0.02777361       1.21448836       0.44256031
C       -0.01365571       0.02487008       0.02831741
O        1.14749242      -0.56010818      -0.42024723
C        1.12320553      -1.85734869      -0.86345272
C        0.01536193      -2.58326697      -0.87924008
O       -1.19237184      -2.09331330      -0.45359074
C       -1.27426707      -0.80109315       0.01023582
N       -2.36750078      -0.31843027       0.40881419
H        0.90957197       1.61767018       0.38308177
H        2.08940392      -2.20998347      -1.19040262
H       -0.04038803      -3.60555421      -1.22071872
H       -3.10997876      -1.01589400       0.32526333
12
Properties=species:S:1:pos:R:3 energy_U0=-11285.446453676133 pbc="F F F"
O       -0.02612873      -0.04632450       0.00453247
C       -0.01009571       1.16256369       0.01000469
N       -1.16448804       1.92406834       0.02901451
C       -1.21532712       3.31202550       0.03614322
C       -0.07432093       4.01253522       0.02417441
N        1.14019197       3.33900493       0.00479032
C        1.29668117       1.96484640      -0.00367010
O        2.38180199       1.43199848      -0.02051549
H       -2.02054927       1.38700492       0.03785548
H       -2.19271186       3.76908803       0.05135383
H       -0.03947871       5.09104511       0.02873675
H        2.00650167       3.85937185      -0.00426127
12
Properties=species:S:1:pos:R:3 energy_U0=-11285.174230970346 pbc="F F F"
O        0.07432672       1.38327530      -0.11536851
C        0.05829495       0.02921773      -0.06469013
C       -0.02941208      -0.74466065      -1.20910863
N       -0.04681123      -2.08610113      -1.17263287
C        0.02523501      -2.64327263       0.02784388
N        0.11319651      -1.99909452       1.20041041
C        0.12859320      -0.68301125       1.14279067
O        0.21602959       0.03866324       2.28219406
H        0.14267098       1.71672057       0.78792913
H       -0.08715282      -0.26253102      -2.18144151
H        0.01241835      -3.72821481       0.07481748
H        0.25632930      -0.59286222       3.01395083
12
Properties=species:S:1:pos:R:3 energy_U0=-11285.19782324203 pbc="F F F"
O        0.09922149       1.36973908       0.04123945
C        0.07642698       0.02554964       0.00558068
N        0.04077293      -0.59938282      -1.14808791
C        0.01919878      -1.94680940      -1.12691414
C        0.03398791      -2.64435689       0.06201932
N        0.07058329      -2.00517517       1.24801250
C        0.09165738      -0.69292519       1.23018420
O        0.12838717      -0.00570484       2.38561301
H        0.08369874       1.66383216      -0.88076104
H       -0.01024118      -2.45322888      -2.08583479
H        0.01680382      -3.72873485       0.08819926
H        0.13315825      -0.66712508       3.09223704
12
Properties=species:S:1:pos:R:3 energy_U0=-11285.033330413513 pbc="F F F"
N        0.00117428       1.39261294       0.13085787
C       -0.06309440       0.02340973       0.03992851
C       -1.18906423      -0.74517138       0.01111002
N       -1.15137797      -2.12335420      -0.01500402
C       -0.00226034      -2.67453150      -0.01988515
O        1.18838658      -2.02344195      -0.01191732
C        1.24016325      -0.64483685       0.00812502
O        2.30750738      -0.08607388      -0.01177933
H        0.90247026       1.77907456      -0.11047274
H       -0.79638502       1.92197456      -0.18258386
H       -2.17837839      -0.29784481       0.01362203
H        0.13666659      -3.74899769      -0.03309776
12
Properties=species:S:1:pos:R:3 energy_U0=-11284.997520229503 pbc="F F F"
N        0.01077973       1.31351150      -0.09694351
C       -0.05377866      -0.03177079      -0.00932136
N       -1.18159919      -0.67375325       0.06536996
C       -1.10007920      -2.04553739       0.16428439
C        0.06559065      -2.71004061       0.18196344
O        1.25866798      -2.04215175       0.09805587
C        1.28478971      -0.68962591      -0.00302123
O        2.33000389      -0.09271714      -0.08360671
H        0.91386638       1.74260637      -0.20405352
H       -0.83537177       1.85136887      -0.16111876
H       -2.03657855      -2.58632892       0.22950748
H        0.20072374      -3.77892104       0.25813085
12
Properties=species:S:1:pos:R:3 energy_U0=-11284.16011703599 pbc="F F F"
O       -0.07128529       1.28523680       0.17232898
C        0.01192818      -0.04074877       0.03974013
N        1.15232122      -0.61972878      -0.07977769
C        1.15152166      -2.00201986      -0.21307090
C        0.01605202      -2.70956157      -0.21793069
O       -1.20129129      -2.10673547      -0.09181257
C       -1.29296807      -0.73840274       0.04530406
N       -2.40011074      -0.13851558       0.16501183
H        0.84001868       1.61449832       0.15321904
H        2.11385882      -2.48637120      -0.31352134
H       -0.06864498      -3.78255241      -0.31670833
H       -3.17399263      -0.80480900       0.14395282
12
Properties=species:S:1:pos:R:3 energy_U0=-11284.655364261635 pbc="F F F"
N        0.01961717       1.37502442       0.13723180
C       -0.05262489       0.00770664       0.04391185
C       -1.17760725      -0.73895157       0.01201713
O       -1.12348837      -2.10868245      -0.01970894
C        0.08692102      -2.67750227      -0.01691846
N        1.22157506      -2.08908256      -0.00586145
C        1.25597207      -0.69087149       0.00697977
O        2.29498661      -0.05864734      -0.02157549
H        0.94390360       1.72055228      -0.08756088
H       -0.74865259       1.92292196      -0.21526766
H       -2.19587072      -0.37590649       0.01430735
H        0.00374010      -3.76040043      -0.02921289
12
Properties=species:S:1:pos:R:3 energy_U0=-11285.13161793983 pbc="F F F"
O        0.02135812       1.35388700       0.00739797
C       -0.05354652       0.01878300       0.00107640
C       -1.20709416      -0.68499906       0.00468950
N       -1.11015429      -2.06804893      -0.00294162
C        0.09690604      -2.67659731      -0.01356354
N        1.24149011      -2.06567977      -0.01759329
C        1.24545589      -0.68117280      -0.01056788
O        2.26253356       0.00665215      -0.01345879
H        0.98989805       1.51448625       0.00219292
H       -2.19683050      -0.25082891       0.01306584
H       -1.94896952      -2.62603354      -0.00055342
H        0.06729891      -3.76400995      -0.01891197
12
Properties=species:S:1:pos:R:3 energy_U0=-11283.809852075085 pbc="F F F"
N        0.05851239       1.21650313       0.32064193
C       -0.05192293       0.01939949      -0.03654017
O       -1.05572221      -0.73813001       0.51937581
C       -1.09499655      -2.04625454       0.22164165
C       -2.09952093      -2.87657617      -0.13976375
N       -1.58987607      -4.16940221      -0.22262888
C       -0.34230237      -4.04956965       0.07861885
O        0.04879221      -2.77769754       0.37355504
H        0.82579382       1.66405032      -0.17666940
H        0.55272806      -0.53797835      -0.75742860
H       -3.13119164      -2.64170357      -0.33882828
H        0.42229730      -4.80846386       0.12043409
12
Properties=species:S:1:pos:R:3 energy_U0=-11284.02993776525 pbc="F F F"
N       -0.20532577       1.28455933       0.01101665
C       -0.03534265       0.04132776       0.00404816
O       -1.16037108      -0.75411198       0.00892573
C       -0.97637596      -2.07802471       0.00097854
N        0.11689359      -2.76624735      -0.01015523
C       -0.34117458      -4.08562497      -0.01345060
C       -1.68985686      -4.09407488      -0.00392858
O       -2.11694870      -2.78039733       0.00559396
H        0.69646787       1.75766044       0.00511443
H        0.88904300      -0.53734591      -0.00704744
H        0.34333946      -4.91831910      -0.02240707
H       -2.45970489      -4.84441724      -0.00212780
12
Properties=species:S:1:pos:R:3 energy_U0=-11284.658330302711 pbc="F F F"
O       -0.01397680       0.49889118       1.16331855
C       -0.00235610       1.32600954       0.28931435
N        1.12354495       1.73836813      -0.39448798
C        2.38820762       1.20810907      -0.17025777
C        3.51875072       1.67355008       0.41217156
N        4.51072330       0.70802899       0.32623654
C        3.93503247      -0.27743570      -0.28385403
O        2.65051618      -0.06055362      -0.63114435
H       -0.90275213       1.86189400      -0.06964077
H        1.00272159       2.41497541      -1.13390965
H        3.68441465       2.62753596       0.88622603
H        4.35085880      -1.23956208      -0.53938913
12
Properties=species:S:1:pos:R:3 energy_U0=-11284.72986903657 pbc="F F F"
O       -0.40613944       0.09851373       0.00757551
C       -0.09038876       1.25670371       0.00848156
N        1.20271132       1.75290105      -0.00386962
C        2.38059015       1.03278640      -0.01814604
N        2.58867206      -0.24141744      -0.03354961
C        3.97916558      -0.34118166      -0.04222033
C        4.52725301       0.89171668      -0.03248818
O        3.49439168       1.80580111      -0.01618479
H       -0.81300213       2.09614935       0.01929101
H        1.31596706       2.75550154       0.00084644
H        4.47071381      -1.30074912      -0.05533981
H        5.52289332       1.29772483      -0.03435485
12
Properties=species:S:1:pos:R:3 energy_U0=-11284.710276838632 pbc="F F F"
O        0.31806325      -0.10683853      -0.12747172
C        0.49098924       1.04314185      -0.36784179
O        0.42531375       2.00157076       0.61391069
C        0.73253273       3.28206886       0.25815415
C        1.81639875       3.87063144      -0.33377209
N        1.60579049       5.22922706      -0.43081312
C        0.42711828       5.44889190       0.09861717
N       -0.15807893       4.29178869       0.53220509
H        0.71906179       1.48502807      -1.35299721
H        2.72636009       3.40352318      -0.67597882
H       -0.05397361       6.40940992       0.20395155
H       -1.05081694       4.17682287       0.98357003
12
Properties=species:S:1:pos:R:3 energy_U0=-11284.93485240749 pbc="F F F"
O        0.07981586      -0.03185780       0.05294099
C        0.00149714       1.15108085      -0.03751846
O        1.10936729       1.94222091       0.17303347
C        0.94815293       3.29027497       0.11488812
N       -0.15746506       3.97712498       0.17815106
C        0.25258154       5.29672323       0.08147196
C        1.61035757       5.37681054      -0.03003061
N        2.05480587       4.06303971      -0.00938206
H       -0.88929038       1.74419789      -0.28211206
H       -0.46362112       6.10265569       0.10653400
H        2.29218995       6.20559122      -0.11218296
H        3.00231541       3.73072600      -0.07355719
12
Properties=species:S:1:pos:R:3 energy_U0=-11283.910996796938 pbc="F F F"
N       -0.10182639       1.29116138       0.00990928
C       -0.00446554       0.03633370       0.00205962
O       -1.15967841      -0.69409659       0.00719493
C       -1.08928651      -2.04430511      -0.00038323
C       -2.14907684      -2.89115326       0.00244182
O       -1.63506322      -4.16461077      -0.00759267
C       -0.30349335      -3.99745862      -0.01595527
N        0.08955099      -2.76206448      -0.01212160
H        0.82805104       1.70621620       0.00504732
H        0.89455811      -0.58049191      -0.00822574
H       -3.21711407      -2.78102118       0.01031210
H        0.30570464      -4.88713571      -0.02472744
12
Properties=species:S:1:pos:R:3 energy_U0=-11284.93082512236 pbc="F F F"
O       -0.25930453       0.04167088       0.00014270
C       -0.06772693       1.23810035       0.00775753
N        1.16687694       1.82102107       0.00092351
C        2.36549774       1.11770171      -0.01515170
C        2.61487772      -0.21779698      -0.02800909
O        3.98231411      -0.36070224      -0.04123559
C        4.46196636       0.89372498      -0.03546531
N        3.55823523       1.82146012      -0.01987222
H       -0.87813443       1.98970971       0.02105874
H        1.24797320       2.82662839       0.00832813
H        2.01048359      -1.10294378      -0.02969789
H        5.53372264       1.01192986      -0.04395917
12
Properties=species:S:1:pos:R:3 energy_U0=-11284.893355043801 pbc="F F F"
O       -0.03059188      -0.00765746       0.09842414
C       -0.00925069       1.17359737      -0.05790137
O        1.07307875       1.91573676       0.32220347
C        1.01238048       3.27364634       0.17736135
C        2.09310039       4.08818494      -0.03097058
N        1.55011950       5.35765505      -0.06175589
C        0.21027395       5.23964181       0.11939932
N       -0.14911972       3.98128614       0.27381578
H       -0.80675628       1.78668665      -0.50073525
H        3.14328618       3.89198738      -0.15170214
H        2.06299915       6.21456042      -0.18410665
H       -0.45283289       6.09052655       0.13843576
12
Properties=species:S:1:pos:R:3 energy_U0=-11285.192843558387 pbc="F F F"
N       -0.13090344       1.32725190       0.01912333
C        0.04482169      -0.02368711       0.01150223
O        1.13219734      -0.57090588       0.00216102
C       -1.20037067      -0.81639511       0.01537457
C       -1.42986922      -2.15513997       0.01117351
N       -2.79530844      -2.38966304       0.01854816
C       -3.31878963      -1.20594717       0.02576607
O       -2.42665003      -0.19174998       0.02588745
H        0.68697069       1.91282878       0.01344275
H       -1.04460010       1.74522348       0.02247279
H       -0.70429703      -2.95140684       0.00333001
H       -4.36308694      -0.93521559       0.03317728
12
Properties=species:S:1:pos:R:3 energy_U0=-11285.17632624707 pbc="F F F"
N       -0.05832881       1.30185100       0.00714527
C        0.04669423      -0.05240533       0.00071811
O        1.08732778      -0.67721737      -0.00966343
C       -1.28990435      -0.71759681       0.00930057
N       -2.46151232      -0.15190429       0.02093416
C       -3.35589510      -1.20651138       0.02444465
C       -2.65625552      -2.36959545       0.01442623
O       -1.33140969      -2.06672728       0.00478929
H        0.78305421       1.85221184       0.00262404
H       -0.96257782       1.74364541       0.01611865
H       -4.42320218      -1.05436465       0.03372530
H       -2.91263434      -3.41488261       0.01268328
12
Properties=species:S:1:pos:R:3 energy_U0=-11285.26079038929 pbc="F F F"
N       -0.09731813       1.31725346       0.00799240
C        0.05386783      -0.03282079       0.00253216
O        1.12758835      -0.60917194      -0.00868053
C       -1.23203182      -0.77414680       0.01097741
C       -1.40429478      -2.11968798       0.00785643
O       -2.74138954      -2.37184207       0.01840416
C       -3.31970479      -1.14581270       0.02751852
N       -2.48528372      -0.16175558       0.02394155
H        0.72361274       1.89779340       0.00329997
H       -1.01624600       1.72723832       0.01771658
H       -0.73594222      -2.96177151      -0.00076790
H       -4.39776103      -1.11758415       0.03686005
12
Properties=species:S:1:pos:R:3 energy_U0=-11285.592469973542 pbc="F F F"
O       -0.07208557      -0.04759746      -0.00055096
C       -0.02231705       1.15635627       0.00794914
N        1.17035847       1.86820934       0.00001858
C        2.46272398       1.32029879      -0.01858188
C        3.32882802       2.34612979      -0.02031659
N        2.59618196       3.53504582      -0.00308359
C        1.23764244       3.28601573       0.01008043
O        0.31501525       4.06836489       0.02643121
H       -0.89053648       1.83247182       0.02288831
H        2.60533448       0.25498770      -0.02834537
H        4.40516305       2.34480257      -0.03227871
H        2.96485896       4.46985962       0.00013762
12
Properties=species:S:1:pos:R:3 energy_U0=-11284.489565286587 pbc="F F F"
N        0.09356861       1.35528127       0.18242675
C       -0.04178747       0.00483281       0.06075415
C       -1.11024619      -0.86942773       0.01650777
C       -2.51821528      -0.53081553       0.00840274
O       -3.44563645      -1.30704733      -0.03221862
N       -0.59410178      -2.17257440      -0.03243454
C        0.67440370      -2.02851155      -0.01963827
O        1.10142992      -0.71257574       0.03804716
H        0.96375594       1.74051272      -0.15368005
H       -0.71916265       1.90397832      -0.05057563
H       -2.70221274       0.57266589       0.04252182
H        1.45488215      -2.77127230      -0.04840509
12
Properties=species:S:1:pos:R:3 energy_U0=-11284.616968995953 pbc="F F F"
N        0.08729155       1.38156737       0.13331268
C       -0.01226897       0.02460289       0.04228182
C       -1.12242547      -0.80203609       0.01148426
O       -0.63501886      -2.10312447      -0.02442034
C        0.68692582      -1.96710633      -0.01393140
N        1.13352653      -0.74679780       0.02372638
C       -2.53575554      -0.55259806       0.00960997
O       -3.41668611      -1.38716313      -0.02360226
H        0.98947910       1.75731227      -0.11458731
H       -0.70108932       1.93680991      -0.15568025
H        1.27483572      -2.87244533      -0.03942185
H       -2.77157617       0.53759234       0.04362989
12
Properties=species:S:1:pos:R:3 energy_U0=-11285.070936548997 pbc="F F F"
O        0.11402769       1.36255426       0.02293324
C        0.07808495       0.02463448      -0.01650796
C        0.02312458      -0.76459758      -1.16080424
N        0.00466271      -2.06182622      -0.65698339
C        0.04686088      -1.98427885       0.68217683
N        0.09253694      -0.72736656       1.11097592
C       -0.01256562      -0.50288708      -2.57303217
O       -0.06124971      -1.38591065      -3.41389874
H        0.14864059       1.61221696       0.95603215
H       -0.03419595      -2.87780402      -1.24750721
H        0.04343906      -2.85492911       1.32055480
H        0.00657641       0.56976610      -2.84965100
12
Properties=species:S:1:pos:R:3 energy_U0=-11285.010853808655 pbc="F F F"
O        0.11516087       1.31035655       0.16442903
C        0.07854275      -0.01851475       0.00522531
N        0.07892852      -0.67714389      -1.10839400
C        0.03218415      -2.02068135      -0.71916022
C        0.00398204      -2.14590257       0.62888400
N        0.03428635      -0.83082490       1.12388466
C        0.02214349      -0.43102082       2.46015405
O       -0.01587725      -1.20503479       3.37893873
H        0.14237122       1.69168663      -0.72340740
H        0.02224783      -2.80520326      -1.45914503
H       -0.03307847      -2.98052727       1.30561617
H        0.05434763       0.66499298       2.56228273
12
Properties=species:S:1:pos:R:3 energy_U0=-11283.103281225576 pbc="F F F"
C        0.04503044       1.37653255      -0.08481490
O        1.30783236       1.92649824       0.41629669
C        1.98047168       0.76249974       0.64883715
C        1.18812956      -0.32581098       0.65652911
O       -0.12110799       0.03893039       0.39890411
N        1.82017871      -1.43985855       1.08660935
C        3.04652104      -1.00393246       1.34684730
N        3.19409697       0.35982668       1.12255311
H       -0.77223206       2.00224662       0.27427836
H        0.10523327       1.36388592      -1.18323968
H        3.88135451      -1.61605633       1.64729860
H        4.04645413       0.88906339       1.19271675
12
Properties=species:S:1:pos:R:3 energy_U0=-11284.236662664878 pbc="F F F"
N       -0.04260662       1.31380905      -0.11817706
C        0.06702877      -0.02654298       0.09342010
O        1.12017808      -0.60676368       0.26678384
C       -1.21653464      -0.72486584       0.08571970
C       -2.24701974      -1.35047189       0.09225282
C       -3.53027362      -2.04896551       0.11706467
N       -3.42480377      -3.38703827      -0.11047649
O       -4.57988665      -1.47068130       0.31639978
H        0.79536810       1.87197495      -0.09565282
H       -0.93821014       1.76288770      -0.20135331
H       -2.53098396      -3.83513888      -0.21529917
H       -4.26225458      -3.94549152      -0.07785098
12
Properties=species:S:1:pos:R:3 energy_U0=-11284.29584742948 pbc="F F F"
C        0.36800421       1.07988480      -0.10464916
C       -0.43465522      -0.11594891       0.30980128
N       -0.97729336      -0.42297908       1.39549247
O       -0.68672162      -1.01324197      -0.76424830
C        0.33035555      -1.76562640      -1.20136920
O        1.45308310      -1.78112744      -0.78237406
C       -0.12113220      -2.60999808      -2.31281942
N       -0.41727318      -3.29187412      -3.19629553
H        0.44766250       1.79099242       0.71901206
H        1.37117408       0.76774328      -0.40762833
H       -0.10619299       1.57070308      -0.96045618
H       -0.80876991       0.29361266       2.10110936
12
Properties=species:S:1:pos:R:3 energy_U0=-11284.024685967748 pbc="F F F"
N       -0.20849694       1.35992616      -0.00058260
C        0.13819584       0.02105849       0.07658692
O        1.26227016      -0.37682489       0.23482448
N       -1.00526329      -0.80761181       0.01610726
C       -1.01629878      -2.19702967      -0.08947003
O       -0.05394816      -2.89584760      -0.27937510
C       -2.36928162      -2.73044316       0.03872527
C       -3.47203173      -3.19955656       0.13706651
H        0.59252364       1.96687091      -0.09039052
H       -1.00077238       1.62475841      -0.56605031
H       -1.90470932      -0.37354953       0.16024070
H       -4.43900534      -3.63259054       0.22513923
12
Properties=species:S:1:pos:R:3 energy_U0=-11284.278160028563 pbc="F F F"
N       -0.06614397       1.54809162      -0.14556021
C        0.01734668       0.29511203      -0.14730502
C       -1.15422995      -0.62500556       0.11441040
C       -2.42243468       0.06491917       0.31982958
N       -3.44796183       0.56562880       0.49002741
O        1.13537995      -0.48215479      -0.41636842
C        2.36198125      -0.07866556       0.04924013
O        3.36266457      -0.62768455      -0.27725511
H        0.80240372       2.02053133      -0.39199743
H       -1.24315964      -1.31877208      -0.73022069
H       -0.92727715      -1.24823303       0.98784851
H        2.28690376       0.76241213       0.75782365
12
Properties=species:S:1:pos:R:3 energy_U0=-11284.503905687023 pbc="F F F"
N       -0.29931484       1.33630279       0.01392021
C       -0.04539002       0.10789302       0.00330055
O       -1.11946872      -0.76174957       0.00917055
C       -0.86024645      -2.10127456      -0.00214068
O        0.22611464      -2.59913453      -0.01662641
C       -2.19470315      -2.83751522       0.00646999
C       -2.04890985      -4.28741349      -0.00113426
N       -1.96546334      -5.43824090      -0.00682581
H        0.56713013       1.87272567       0.00821983
H        0.91463773      -0.40719411      -0.01013425
H       -2.76233185      -2.51783972       0.88756149
H       -2.77731301      -2.51037468      -0.86206441
12
Properties=species:S:1:pos:R:3 energy_U0=-11284.89632108488 pbc="F F F"
O       -0.44959059       0.11585553       0.00672801
C       -0.12643296       1.26752049       0.00875976
N        1.18353130       1.76137554      -0.00067269
C        2.36958415       1.01893933      -0.01484432
O        2.42880506      -0.17659663      -0.02177019
C        3.60909061       1.94014655      -0.02111745
C        4.86224912       1.19797633      -0.03794690
N        5.87500740       0.64510559      -0.05129423
H       -0.84600683       2.11077567       0.01961502
H        1.26495870       2.76828807       0.00346269
H        3.56732934       2.60012955      -0.89649265
H        3.58426738       2.58884170       0.86329940
12
Properties=species:S:1:pos:R:3 energy_U0=-11285.06701810941 pbc="F F F"
N        0.01028791       1.31728686       0.00759554
C        0.06972266      -0.02868029       0.00050658
O        1.07403654      -0.71443313      -0.01244118
C       -1.33311625      -0.67774520       0.01079407
O       -2.33753829      -0.01500317       0.02402865
C       -1.29607341      -2.20354121       0.00262609
C       -2.61779380      -2.81335666       0.01189007
N       -3.65919377      -3.31120451       0.01909069
H        0.85837865       1.85863419       0.00245809
H       -0.88991942       1.76954525       0.01872922
H       -0.72160617      -2.52999650      -0.87205282
H       -0.70542370      -2.53883112       0.86308004
12
Properties=species:S:1:pos:R:3 energy_U0=-11285.245688070047 pbc="F F F"
N        0.05078078       1.34336670       0.10120377
C       -0.09238227       0.00208495       0.03780160
C       -1.14641459      -0.84393547       0.02483668
C       -0.63020310      -2.20088785      -0.00810734
N       -1.26529270      -3.29045282      -0.02755423
O        0.78109682      -2.13954254      -0.01826100
C        1.15246464      -0.82752100       0.00127890
O        2.28676046      -0.44185392      -0.01920235
H        0.97869013       1.70648650      -0.05213846
H       -0.72715142       1.95592640      -0.07006470
H       -2.20267715      -0.62632503       0.03775132
H       -0.62567039      -4.08535043      -0.04844329
12
Properties=species:S:1:pos:R:3 energy_U0=-11285.878243949568 pbc="F F F"
N        0.06102048       1.32959887       0.00721895
C       -0.08364179      -0.00405667       0.00093761
C       -1.13949235      -0.85195539       0.00304324
C       -0.62715697      -2.22766683      -0.00738363
O       -1.21456197      -3.28129379      -0.00951677
N        0.79690963      -2.12300086      -0.01596134
C        1.20087095      -0.81649281      -0.01178144
O        2.32053184      -0.35702485      -0.01612556
H        1.00056754       1.69468208       0.00317505
H       -0.71796727       1.96222204       0.01561456
H       -2.19501833      -0.62959051       0.01089067
H        1.41338676      -2.91906967      -0.02401834
12
Properties=species:S:1:pos:R:3 energy_U0=-11285.367676713595 pbc="F F F"
N        0.08854545       1.34322614       0.00735791
C       -0.05754126       0.01148870       0.00093004
C       -1.13002791      -0.81951875       0.00289090
C       -0.64512032      -2.18794473      -0.00777584
O       -1.19780400      -3.24468967      -0.01001079
O        0.79197635      -2.13814037      -0.01606559
C        1.16658054      -0.83648788      -0.01117342
N        2.33918930      -0.36588588      -0.01560411
H        1.02656212       1.71156941       0.00395839
H       -0.69432454       1.97118803       0.01598484
H       -2.18106227      -0.57942673       0.01069091
H        3.04240018      -1.10549275      -0.02390948
12
Properties=species:S:1:pos:R:3 energy_U0=-11283.37928631402 pbc="F F F"
O        0.04292906       1.33823473       0.28213695
C        0.05835957      -0.04734265       0.02874231
C       -1.41375012      -0.57358144       0.04748386
O       -2.05011332      -0.14472477       1.22235011
C       -2.10577442      -0.03270436      -1.15475469
N       -2.58781009       0.47365338      -2.07431354
C       -1.41493684      -2.04566456       0.00599313
N       -1.35289967      -3.19707167      -0.03956008
H       -0.19447067       1.80239678      -0.53011226
H        0.54723742      -0.31104842      -0.91502510
H        0.58588274      -0.52295035       0.85883652
H       -1.70482521       0.74789040       1.38595921
12
Properties=species:S:1:pos:R:3 energy_U0=-11283.442933745931 pbc="F F F"
O        0.25309698       1.59648054      -0.12615631
C        0.13968142       0.19703650      -0.01797802
C        0.65125364      -0.49042398      -1.21717583
N        1.06678553      -1.01803334      -2.15675870
C        0.89414793      -0.32043062       1.24860510
O        2.20257634       0.19823364       1.29348118
C        0.12569472       0.02048794       2.45923986
N       -0.47014027       0.30486082       3.40685108
H        1.13697217       1.79808782      -0.45649086
H       -0.92706206      -0.02708637       0.08408151
H        0.98732423      -1.40967787       1.18988863
H        2.14833951       1.11581754       1.58690852
12
Properties=species:S:1:pos:R:3 energy_U0=-11284.779801929923 pbc="F F F"
C       -0.02694817       1.48102764      -0.01280593
N       -0.00596306       0.01402284       0.00101634
C       -0.00624731      -0.65857959       1.23704883
O       -0.02291246      -0.08490971       2.29403646
C        0.01416843      -0.73872073      -1.16093214
O        0.03074310      -1.94523305      -1.21741006
C        0.01114898       0.06586287      -2.39685859
N        0.00978014       0.65024744      -3.39354123
H        0.86259291       1.87653975      -0.50767568
H       -0.91927444       1.85091325      -0.52226208
H       -0.04006673       1.80094668       1.02791840
H        0.01046880      -1.74799838       1.11078019
12
Properties=species:S:1:pos:R:3 energy_U0=-11283.449818226596 pbc="F F F"
N        0.06409135       1.09302509      -0.20676186
C       -0.19616359      -0.09985807       0.08874586
O       -0.46522306      -0.98607596      -0.90888222
C       -0.78938785      -2.29155968      -0.52661149
C       -2.19729934      -2.40718808       0.04942510
O       -2.89927089      -1.47520627       0.33258004
C       -2.63393382      -3.80244843       0.26653173
N       -2.94117803      -4.90516377       0.42934109
H        0.25925841       1.63206632       0.63397688
H       -0.21927355      -0.54793037       1.09034958
H       -0.71826024      -2.92176395      -1.41945180
H       -0.08817862      -2.70959083       0.21439373
12
Properties=species:S:1:pos:R:3 energy_U0=-11284.48352435889 pbc="F F F"
O       -0.05509594      -0.06804314       0.02442714
C       -0.01775321       1.14294447       0.01648524
N        1.13361132       1.86659540      -0.01154761
C        2.41760132       1.22292711      -0.02546926
C        3.51442984       2.25894353      -0.01655738
O        3.32270271       3.44956195      -0.00207266
C        4.88108396       1.71054661      -0.02839187
N        5.95047880       1.27163808      -0.03759201
H       -0.91653702       1.78782704       0.03059022
H        1.12391113       2.87593277      -0.00816339
H        2.55436627       0.55562000       0.83858664
H        2.55027936       0.57894506      -0.90801007
12
Properties=species:S:1:pos:R:3 energy_U0=-11284.022236943005 pbc="F F F"
C        0.09117615       1.36478319      -0.09363246
N       -0.02408747      -0.06936034      -0.27653000
C       -1.11102262      -0.60699627       0.02033493
O       -1.21316109      -1.98346292      -0.15819793
C       -2.38199604      -2.57305334       0.16026735
O       -3.36935190      -2.04715065       0.58831263
C       -2.28630391      -4.01202475      -0.09701609
N       -2.27071544      -5.15211633      -0.27926415
H        0.92201801       1.56793480       0.58949468
H        0.34664943       1.82369653      -1.05405137
H       -0.81812783       1.84254314       0.29914242
H       -2.01994081      -0.14692864       0.41018503
12
Properties=species:S:1:pos:R:3 energy_U0=-11283.859730545666 pbc="F F F"
N        0.05906101       1.50727000       0.13914886
C        0.01116012       0.06414968       0.03233079
C       -1.40367488      -0.55577071      -0.13596061
O       -1.01975132      -1.13441664      -1.42059300
C        0.23915642      -0.60380243      -1.37421066
O        1.09372345      -0.63766853      -2.19288306
C        0.81837081      -0.55332047       1.08078739
N        1.46401743      -1.05603855       1.89607186
H        1.02125353       1.82644618       0.19739630
H       -0.35187806       1.93524621      -0.68567097
H       -1.68759685      -1.32862623       0.57775929
H       -2.19454314       0.18653902      -0.25653417
12
Properties=species:S:1:pos:R:3 energy_U0=-11283.200779621702 pbc="F F F"
O        0.09490326       1.41415895       0.07187078
C        0.04536745       0.01564266       0.03175362
C       -1.39529996      -0.52676585      -0.14450715
O       -1.03294031      -1.08450291      -1.44705202
C        0.25018505      -0.60789418      -1.35694658
N        1.22219506      -0.61348994      -2.13969685
C        0.82728141      -0.60560527       1.10979249
N        1.44525379      -1.08365672       1.96067159
H        0.97076775       1.68879295      -0.22900808
H       -1.71299912      -1.30636524       0.54782449
H       -2.13681269       0.26729728      -0.24036671
H        1.01154424      -1.06626269      -3.02996220
12
Properties=species:S:1:pos:R:3 energy_U0=-11284.754440918148 pbc="F F F"
O       -0.09815580       0.01571080       0.10254055
C        0.01396906       1.21094176       0.16073615
N        1.22370325       1.89851285       0.02233262
C        1.26165863       3.35823437       0.08027513
C        0.95502927       3.88246327       1.41530840
N        0.69230298       4.29571318       2.46106185
C        2.42386130       1.20669780      -0.18594774
O        3.48398866       1.75948365      -0.33173140
H       -0.83321228       1.90033237       0.32935519
H        2.27572587       3.65051178      -0.20601220
H        0.56320310       3.78975997      -0.64386916
H        2.26654262       0.12095732      -0.20239438
12
Properties=species:S:1:pos:R:3 energy_U0=-11283.27819601494 pbc="F F F"
N       -0.23597052       1.35859678      -0.25163320
C       -0.10248586       0.11230008      -0.19761667
O       -1.19871497      -0.65731531       0.06697802
C       -1.00735574      -2.05764829       0.09542528
C       -2.15709876      -2.64193960       0.94801371
O       -2.53046256      -3.77349601       0.86739568
C       -0.95342792      -2.65029622      -1.24725394
N       -0.89280780      -3.09557482      -2.31063604
H        0.65707404       1.80749589      -0.44316457
H        0.81650376      -0.47131332      -0.33501322
H       -0.07425828      -2.31582950       0.62315680
H       -2.56907841      -1.89514163       1.65587343
12
Properties=species:S:1:pos:R:3 energy_U0=-11284.056033484447 pbc="F F F"
C        0.07821391       1.51984187       0.15135040
N        0.23206277       0.07945921       0.16429899
C        0.55347631      -0.55725156      -0.87199460
O        0.70596684      -1.91604498      -0.89734210
C        0.03392683      -2.67723324       0.04639149
O        0.25937399      -3.83674756       0.15255761
C        0.84133436       0.01145282      -2.17544202
N        1.06120889       0.51919822      -3.19019963
H        0.74403619       1.94357874       0.90970312
H        0.28816244       1.98931785      -0.81710573
H       -0.94566166       1.76339259       0.45308284
H       -0.69339230      -2.08576698       0.61593067
12
Properties=species:S:1:pos:R:3 energy_U0=-11283.800627415223 pbc="F F F"
N        0.22799112       0.81779422       0.88345894
C       -0.04210128       0.10626286      -0.23991418
O        0.64390443       0.06007904      -1.23572938
C       -1.31919096      -0.72385194      -0.12998427
C       -1.42480563      -1.75246157       0.93313860
O       -2.13473000      -0.52168387       1.03041133
C       -2.03140209      -0.92934831      -1.37543028
N       -2.62352969      -1.09719645      -2.35227394
H        1.01931671       1.44057043       0.86826857
H       -0.48874382       0.93971151       1.58048069
H       -2.03692645      -2.63216243       0.75092140
H       -0.58816680      -1.87079037       1.61785671
12
Properties=species:S:1:pos:R:3 energy_U0=-11283.717741533394 pbc="F F F"
N       -0.03473680       1.28402815      -0.00173503
C       -0.03588953       0.03082402      -0.03700151
C       -1.24054276      -0.87687347      -0.15720314
O       -0.67421263      -2.14930740      -0.47369176
C        0.62441834      -2.13412384       0.04041121
O        1.07436106      -0.78684259       0.01785204
C        0.67281951      -2.65186356       1.43622702
N        0.70501926      -3.07371744       2.51048402
H        0.90766187       1.66023887       0.10564829
H       -1.79990665      -0.90885631       0.78684033
H       -1.90760968      -0.57706719      -0.96543542
H        1.27242504      -2.74136759      -0.59686313
12
Properties=species:S:1:pos:R:3 energy_U0=-11283.976521814484 pbc="F F F"
N       -0.11258834       1.27843347      -0.12221002
C        0.00450933       0.04289402       0.03398237
O        1.15126584      -0.67787160       0.20542978
C        0.82202999      -2.02112054       0.54283244
C       -0.64051981      -2.13933331       0.05971899
O       -1.08142930      -0.78753777       0.05516850
C       -0.75685395      -2.73818551      -1.28087396
N       -0.83523230      -3.23759836      -2.31904952
H        0.79340714       1.73654448      -0.06590109
H        1.50629772      -2.69944161       0.03316950
H        0.88808491      -2.16393839       1.62646647
H       -1.26642059      -2.70452842       0.75415756
12
Properties=species:S:1:pos:R:3 energy_U0=-11284.885055571065 pbc="F F F"
O       -0.03792008      -0.04124132      -0.04947133
C       -0.06454714       1.15160430      -0.00932707
N       -1.11244839       1.98319040       0.32312895
C       -0.84766668       3.35702819      -0.04684566
C        0.70464356       3.31348722      -0.06577407
O        1.03443208       1.94085327      -0.28632518
C        1.29508323       4.15529315      -1.10747612
N        1.74178178       4.85263925      -1.91178325
H       -2.03959438       1.59134579       0.28384680
H       -1.24952563       3.62250749      -1.03244900
H       -1.21645370       4.07234936       0.69170827
H        1.11021500       3.61954782       0.90601247
12
Properties=species:S:1:pos:R:3 energy_U0=-11284.726059442524 pbc="F F F"
O       -0.08334110      -0.01151938      -0.00141979
C        0.00766945       1.18457591       0.00608069
C        1.31095441       1.92429899      -0.00182801
N        2.46607809       1.37129195      -0.01914001
C        3.43400117       2.46696410      -0.02013751
C        2.63127064       3.77588593      -0.00112869
O        2.99600065       4.92211614       0.00581245
N        1.31174338       3.31876467       0.01013284
H       -0.88911112       1.84415292       0.01973997
H        4.09437557       2.40167006       0.85190496
H        4.07616683       2.41618354      -0.90661034
H        0.50830810       3.92678447       0.02493181
12
Properties=species:S:1:pos:R:3 energy_U0=-11283.937310207222 pbc="F F F"
N       -0.01664093       1.35834700       0.27459228
C        0.03594956      -0.02894268      -0.07211037
C       -1.31430788      -0.79502779      -0.27089615
O       -0.86636429      -1.26107991      -1.57854758
C        0.28885663      -0.50192451      -1.52368347
O        1.08038254      -0.32458625      -2.38687859
C       -1.61314758      -1.88838399       0.64220273
N       -1.83832502      -2.73683196       1.39329309
H        0.87314297       1.68885881       0.62594870
H       -0.27871879       1.94288564      -0.51156952
H        0.68733277      -0.56408874       0.62267043
H       -2.17508739      -0.12962409      -0.37151609
12
Properties=species:S:1:pos:R:3 energy_U0=-11283.217786737965 pbc="F F F"
O        0.04666424       1.25742315       0.24986787
C        0.11232901      -0.11472193      -0.00233334
C       -1.28074657      -0.77023327      -0.21993173
O       -0.87179298      -1.19677730      -1.55934328
C        0.34112551      -0.53890576      -1.44452936
N        1.25719326      -0.32884063      -2.26608774
C       -1.65002445      -1.89205608       0.63194843
N       -1.93840571      -2.76958493       1.32530571
H        0.83420427       1.66342513      -0.13159777
H        0.73731497      -0.65469828       0.71980711
H       -2.08533281      -0.03333643      -0.27416233
H        1.06270759      -0.72206207      -3.18783972
12
Properties=species:S:1:pos:R:3 energy_U0=-11284.433020026428 pbc="F F F"
N        0.00057521       1.33673005       0.08911739
C       -0.03571712      -0.01373350       0.02629567
N       -1.09690507      -0.74645610       0.00448814
C       -0.73741253      -2.17129498      -0.00904202
C        0.78278791      -2.25284352      -0.01984305
O        1.49953185      -3.21535908      -0.04008865
C        1.24932522      -0.77776573      -0.00301118
O        2.37171029      -0.34225808      -0.02899341
H        0.88360280       1.78608360      -0.08951100
H       -0.84575750       1.85975665      -0.06393619
H       -1.14968329      -2.68628206       0.86764668
H       -1.15883053      -2.67151613      -0.88976903
12
Properties=species:S:1:pos:R:3 energy_U0=-11283.83526750963 pbc="F F F"
N        0.55848034       0.83978576       0.52959529
C       -0.27016702       0.25251410      -0.36445698
O       -0.37288418       0.54551076      -1.53775325
C       -1.11716762      -0.86819398       0.20612830
O       -0.90863731      -1.27371257       1.55889322
C       -2.14729503      -0.63408205       1.24786810
C       -2.37145578       0.67176355       1.83016252
N       -2.57865262       1.70111967       2.31224953
H        1.10716781       1.63207205       0.23954173
H        0.59077514       0.52784602       1.48552546
H       -1.31087099      -1.66820701      -0.50498081
H       -3.01872549      -1.28548986       1.26492607
12
Properties=species:S:1:pos:R:3 energy_U0=-11284.050618418629 pbc="F F F"
O       -0.19123376       0.21248294       0.09556340
C        0.24425660       1.25463960       0.46012213
O        0.84965093       2.12406949      -0.40999748
C        1.32184773       3.29940489       0.09020810
N        1.87925890       4.10530660      -0.69456514
C        2.39312183       5.36665880      -0.19312513
C        2.21877280       5.62007244       1.24765995
N        2.05217322       5.76003131       2.38272085
H        0.21572664       1.63461276       1.49625563
H        1.16795931       3.44044870       1.16588770
H        3.46183210       5.42348840      -0.43085971
H        1.91573951       6.18068056      -0.75112762
12
Properties=species:S:1:pos:R:3 energy_U0=-11283.705142661664 pbc="F F F"
N       -0.03443383       1.27135592      -0.22096629
C        0.00869960       0.03700934      -0.00383958
O        1.10259913      -0.73562766       0.23864879
C        0.66835381      -2.07413870       0.47979925
O       -0.61470456      -2.18832967      -0.09244366
C       -1.20036957      -0.90287121       0.00778903
C       -1.99447676      -0.75245267       1.24295509
N       -2.60940487      -0.66107357       2.21612671
H        0.89191307       1.69691265      -0.17595165
H        1.34260651      -2.77030109      -0.02221379
H        0.64742901      -2.25230959       1.56399660
H       -1.84089301      -0.73261849      -0.85966382
12
Properties=species:S:1:pos:R:3 energy_U0=-11284.700399105503 pbc="F F F"
O       -0.96630239       1.09275162       0.26356620
C        0.16355250       0.85934014      -0.05968648
C        1.27832158       1.91180443      -0.06508532
N        2.59370298       1.29761920       0.12607184
C        3.26971766       1.57851142      -0.92139381
N        2.62173985       2.34742018      -1.87627810
C        1.33225988       2.64156297      -1.43401848
O        0.50271862       3.29713619      -2.00294490
H        0.49898011      -0.14506575      -0.39415379
H        1.05190011       2.63674196       0.72241308
H        4.29237672       1.25803817      -1.09097293
H        3.00461430       2.68174499      -2.74607346
12
Properties=species:S:1:pos:R:3 energy_U0=-11285.220571960746 pbc="F F F"
O       -0.08191253      -0.06357874      -0.00163729
C       -0.04828540       1.13939356       0.00738365
N        1.13886684       1.86981635       0.00015595
C        2.44465728       1.34578376      -0.01804861
N        3.38299262       2.20535305      -0.02154297
C        2.74912769       3.52500358      -0.00436842
C        1.23845994       3.28521912       0.01012737
O        0.31529091       4.05250030       0.02612946
H       -0.92746223       1.80219722       0.02206244
H        2.57014596       0.27032182      -0.02780604
H        3.05781684       4.09723712       0.87708596
H        3.03873811       4.11097340      -0.88326950
12
Properties=species:S:1:pos:R:3 energy_U0=-11283.964956975424 pbc="F F F"
N       -0.12870483       1.29777762      -0.05338645
C       -0.02260306       0.03742995       0.00697373
N        1.11468951      -0.77379920       0.09354915
C        0.87233470      -2.14040413      -0.03478549
O        1.70755342      -3.00363922      -0.10556850
C       -0.63988136      -2.27502685      -0.08039258
O       -1.23901841      -1.75753023       1.11479113
C       -1.18821933      -0.91067835      -0.04014152
H        0.77928244       1.76517688      -0.01701387
H        2.04976262      -0.42035992       0.23291471
H       -1.10591096      -3.13756914      -0.54184541
H       -2.13221785      -0.59746552      -0.46863131
12
Properties=species:S:1:pos:R:3 energy_U0=-11283.843294868508 pbc="F F F"
N       -0.07400782       1.26425732      -0.05563426
C       -0.05221695       0.01323246       0.03796031
O        1.09922700      -0.75137602       0.20184061
C        0.84336414      -2.10395654       0.00621185
O        1.71648859      -2.90620610      -0.08869271
C       -0.64524240      -2.27885568      -0.08240301
N       -1.28722282      -1.77175875       1.15562824
C       -1.21785205      -0.91048663      -0.04650228
H        0.86537867       1.65874007       0.01614274
H       -1.05518915      -3.11824178      -0.62744067
H       -2.22368461      -2.16971875       1.20958809
H       -2.11381037      -0.60276089      -0.56777065
12
Properties=species:S:1:pos:R:3 energy_U0=-11284.020196089052 pbc="F F F"
N       -0.06715603       1.27038327      -0.03551361
C       -0.05029230       0.01839904       0.04457976
O        1.08712833      -0.77188164       0.12062513
C        0.74992274      -2.11848295       0.02002937
O        1.56377363      -2.98032097       0.02261113
N       -0.66596659      -2.26856557      -0.09763498
C       -1.34274399      -1.85370648       1.15672196
C       -1.21626659      -0.90393004       0.02051916
H        0.87636361       1.65965221      -0.03347198
H       -2.29358926      -2.34583392       1.32673250
H       -0.72951550      -1.69811247       2.03930257
H       -2.07149492      -0.64172915      -0.58924645
12
Properties=species:S:1:pos:R:3 energy_U0=-11284.554899824432 pbc="F F F"
O        0.04233384      -0.03089653      -0.07219219
C        0.03155133       1.16961903      -0.00495008
N       -1.10291885       1.97251473       0.12789997
C       -0.87442069       3.34548273       0.01801946
O       -1.71925506       4.19994517      -0.02697168
C        0.62898234       3.49912797      -0.05882108
N        1.27228830       2.95048504       1.15975659
C        1.19914877       2.12969778      -0.07341633
H       -2.02790283       1.58608872       0.24959864
H        1.05137984       4.34984524      -0.57706725
H        2.21147827       3.34076296       1.22859618
H        2.09649424       1.83965200      -0.60385307
12
Properties=species:S:1:pos:R:3 energy_U0=-11284.765706431963 pbc="F F F"
O        0.03831166      -0.03242401      -0.04533284
C        0.03621419       1.16882938       0.00991685
N       -1.08011628       1.99981150       0.05498028
C       -0.77579663       3.36183332       0.03177747
O       -1.55702958       4.26641122       0.08685935
N        0.65586828       3.49340288      -0.07871333
C        1.33330763       3.04867471       1.15630827
C        1.20068829       2.12391162      -0.00433439
H       -2.02744993       1.65811008       0.12171772
H        2.29117050       3.52318460       1.34041881
H        0.72361357       2.86896126       2.03747078
H        2.05521809       1.87827282      -0.62352572
12
Properties=species:S:1:pos:R:3 energy_U0=-11282.191482102671 pbc="F F F"
C        0.03693363       1.37404082      -0.11646492
C        1.53085042       1.85318941       0.07332648
C        2.09507290       0.59281204       0.63511178
C        1.17071843      -0.38862832       0.60973212
O       -0.04710696      -0.07160725       0.12282028
N        1.72267289      -1.52842664       1.08575508
N        2.92877211      -1.30946663       1.40164168
O        3.22809678       0.11647339       1.11104419
H       -0.62388072       1.86093681       0.60539150
H       -0.33643718       1.55664906      -1.12495397
H        1.99993511       2.13758500      -0.87504279
H        1.59386486       2.71304166       0.74611236
12
Properties=species:S:1:pos:R:3 energy_U0=-11282.012730507877 pbc="F F F"
C        0.03805750       1.37693183      -0.12207793
C        1.51973185       1.85453144       0.09228001
C        2.11684962       0.61014477       0.66472250
N        3.22255004       0.14571024       1.15068042
O        2.93998888      -1.17709525       1.44686555
N        1.61888565      -1.52364893       1.12945926
C        1.14559450      -0.41467765       0.65494511
O       -0.04608346      -0.05889067       0.16693325
H       -0.65256433       1.88214891       0.55733050
H       -0.30529635       1.51600236      -1.14829862
H        1.99206535       2.14160720      -0.85131974
H        1.57216924       2.71184225       0.76726819
12
Properties=species:S:1:pos:R:3 energy_U0=-11281.986253829275 pbc="F F F"
C        0.30605673       1.52884163       0.13217186
O        1.13172035       0.43561282      -0.25253292
C       -0.24025243       0.16219051       0.04332559
C       -0.51664012      -0.64175521       1.24370183
C       -1.38376604      -1.66657743       1.47538396
N       -1.23168361      -2.02719957       2.79220369
N       -0.36132151      -1.31854007       3.35249684
O        0.13910180      -0.38653649       2.37346017
H        0.51496995       1.94931706       1.11322283
H        0.06595983       2.24117465      -0.65539641
H       -0.84979236      -0.10676778      -0.81727575
H       -2.08113251      -2.15964997       0.82047482
12
Properties=species:S:1:pos:R:3 energy_U0=-11281.970906607557 pbc="F F F"
C        0.90561463       1.10495075      -0.01257648
O        0.21165936       0.14753105      -0.81299788
C       -0.41941393       0.59456880       0.38615478
C       -0.57540802      -0.43153668       1.43338560
C       -0.11109738      -1.70777582       1.49936898
O       -0.51812870      -2.25489561       2.64078801
N       -1.28579247      -1.25381737       3.31420275
N       -1.29726123      -0.22675350       2.58971686
H        1.79099114       0.73397369       0.50011849
H        0.98718427       2.10210244      -0.44158702
H       -1.28190070       1.24522022       0.24882993
H        0.47510981      -2.31323428       0.82911115
12
Properties=species:S:1:pos:R:3 energy_U0=-11282.609748317253 pbc="F F F"
C        0.19540316       1.50554372       0.09365912
O        1.17191347       0.49893372      -0.13987311
C       -0.18148270       0.08028203       0.03598638
C       -0.48636932      -0.68502437       1.25777266
N       -1.32417971      -1.67410438       1.37216123
C       -1.21373189      -1.97420701       2.70747485
N       -0.37243245      -1.23704854       3.37818158
O        0.12285044      -0.36101257       2.40372018
H        0.25426169       1.99858712       1.06150840
H       -0.04264336       2.14182688      -0.75691518
H       -0.67738309      -0.31345691      -0.84727632
H       -1.77184915      -2.76430123       3.18823205
12
Properties=species:S:1:pos:R:3 energy_U0=-11282.544767527426 pbc="F F F"
C        0.20730864       1.55002630       0.10645641
O        1.15805259       0.54342736      -0.21729831
C       -0.17317029       0.12503168       0.06901744
C       -0.38952066      -0.65344683       1.30896595
N        0.35813236      -0.54489190       2.37734962
O       -0.22772194      -1.44570531       3.27245732
C       -1.26032454      -1.99106765       2.63115884
N       -1.42628391      -1.55912171       1.42235130
H        0.34492738       2.02705162       1.07456898
H       -0.09290676       2.19963531      -0.71431838
H       -0.74349031      -0.25027316      -0.77788027
H       -1.84245126      -2.72590843       3.16752136
12
Properties=species:S:1:pos:R:3 energy_U0=-11281.519279233711 pbc="F F F"
C        0.85766099       1.04559717      -0.05714827
O        0.02383987       0.20192249      -0.84673191
C       -0.48158489       0.64787040       0.41369546
C       -0.65252488      -0.40332186       1.43446015
N       -1.45936997      -0.27322480       2.45428766
O       -1.34817751      -1.43332065       3.16642858
N       -0.47229163      -2.29908850       2.57636583
C       -0.03590694      -1.68619013       1.51310855
H        1.73851376       0.57037509       0.37106458
H        1.00454639       2.05426885      -0.43901847
H       -1.28663807       1.37775496       0.36697634
H        0.66626950      -2.15084765       0.83980934
12
Properties=species:S:1:pos:R:3 energy_U0=-11282.690294019883 pbc="F F F"
C        0.05034567       1.39360175      -0.13065536
O        1.44944259       1.80129850      -0.01371390
C        1.98069950       0.70691827       0.58878991
C        1.14946660      -0.36652164       0.59367349
O       -0.03112822      -0.03232984      -0.05243440
C        1.88190816      -1.41292096       1.16641784
N        3.10758860      -0.97635671       1.50324474
N        3.15362848       0.33919526       1.12429689
H       -0.49888157       1.84561721       0.70839509
H       -0.33090460       1.73247208      -1.09493861
H        1.61138759      -2.43839118       1.36094478
H        3.98227077       0.87670817       1.30785575
12
Properties=species:S:1:pos:R:3 energy_U0=-11282.968013425649 pbc="F F F"
C        0.03119293       1.36832657      -0.11381917
O        1.27954094       1.94044380       0.33563475
C        2.00596105       0.84305355       0.70828222
C        3.23086891       0.42990280       1.14964821
N        3.04749136      -0.91001795       1.43494790
N        1.78927679      -1.37992535       1.15010120
C        1.19577607      -0.28865091       0.73747462
O       -0.08169056       0.01966332       0.38088399
H       -0.79537319       1.96375583       0.27920740
H        0.02327657       1.34718305      -1.21255758
H        4.17379518       0.92245278       1.31405860
H        3.77255337      -1.58768867       1.59079748
12
Properties=species:S:1:pos:R:3 energy_U0=-11281.83106729478 pbc="F F F"
C       -0.05457210       1.50015094       0.09814583
O        1.20602715       1.92349192      -0.45272333
C        2.13611053       0.84067025      -0.63772876
C        1.29984120      -0.37697896      -0.41808521
N        1.37120914      -1.66931353      -0.48741661
O        0.11537210      -2.09870632      -0.09494077
N       -0.72010991      -1.03974510       0.21508040
C        0.01237087       0.01059971       0.01439021
H       -0.15857823       1.85090628       1.13392101
H       -0.86289528       1.93724811      -0.49727550
H        2.55740426       0.90760475      -1.64619206
H        2.95864157       0.91250203       0.08681227
12
Properties=species:S:1:pos:R:3 energy_U0=-11283.316237532603 pbc="F F F"
C       -0.02464059       1.50283869      -0.05854831
C       -0.02594125      -0.00251756       0.04137638
O       -0.04595498      -0.61347743       1.08621930
C       -0.00129515      -0.76807224      -1.23550404
C        0.00404627      -2.10958018      -1.47656177
N        0.02969744      -2.26845405      -2.83849468
N        0.04006372      -1.14940548      -3.41681116
O        0.02141011      -0.13512581      -2.41165164
H        0.86448474       1.84645320      -0.59813563
H       -0.89141783       1.84581820      -0.63369769
H       -0.04500129       1.93126464       0.94336939
H       -0.00862721      -2.93838339      -0.79102118
12
Properties=species:S:1:pos:R:3 energy_U0=-11283.399640430767 pbc="F F F"
C       -0.06283795       1.49353802       0.01013990
C        0.03491653      -0.01392899       0.00377551
O        1.08833563      -0.61674211      -0.00852973
C       -1.23555338      -0.77015328       0.01183345
C       -1.42703495      -2.12428118       0.00809877
O       -2.71225075      -2.39335028       0.01779696
N       -3.38975288      -1.08477823       0.02988718
N       -2.49954188      -0.21438001       0.02499846
H        0.94067101       1.91883128       0.00254062
H       -0.62783851       1.84223982      -0.86073673
H       -0.61182307       1.83582205       0.89370938
H       -0.72876098      -2.94571685      -0.00137208
12
Properties=species:S:1:pos:R:3 energy_U0=-11283.779266477193 pbc="F F F"
C       -0.01510274       1.48055323      -0.09251430
C       -0.02268349      -0.02411904       0.03619187
O       -0.04730469      -0.61626540       1.08561144
C        0.00079590      -0.80401569      -1.24951201
N        0.00004972      -2.09508345      -1.41154324
C        0.02690588      -2.20496868      -2.77517485
N        0.04454203      -1.07016097      -3.42730467
O        0.02622915      -0.12399878      -2.40837621
H        0.87569446       1.81314327      -0.63589239
H       -0.88071105       1.81890501      -0.67187617
H       -0.03409716       1.92296062       0.90326789
H        0.03478921      -3.15023699      -3.29781965
12
Properties=species:S:1:pos:R:3 energy_U0=-11283.779239265807 pbc="F F F"
C        0.88219820       0.99641945       0.25821807
C       -0.35697562       0.23010743      -0.13974685
O       -1.41629544       0.31865648       0.43073945
C       -0.20268601      -0.68360592      -1.32614013
N       -1.19336227      -1.41004725      -1.78421432
O       -0.62796001      -2.08545276      -2.85851537
C        0.64682631      -1.68941216      -2.92913402
N        0.98156530      -0.83062206      -2.02284410
H        1.69840880       0.30473262       0.49096805
H        1.23171336       1.61322542      -0.57621061
H        0.65461071       1.62029853       1.12243678
H        1.25290778      -2.11509240      -3.71510253
12
Properties=species:S:1:pos:R:3 energy_U0=-11282.857562409776 pbc="F F F"
C       -0.03399935       1.49618619       0.00934759
C        0.03569663      -0.01060902       0.00291208
O        1.07064136      -0.63923650      -0.00926433
C       -1.25499789      -0.75797470       0.00976353
N       -2.43409913      -0.18826335       0.02177427
O       -3.33722943      -1.19882611       0.02458689
N       -2.71815043      -2.42812172       0.01394546
C       -1.44287121      -2.17095305       0.00476554
H        0.97648943       1.90470432       0.00180443
H       -0.59394328       1.85210409      -0.86159886
H       -0.57794982       1.84513904       0.89315872
H       -0.70172995      -2.95360214      -0.00476827
12
Properties=species:S:1:pos:R:3 energy_U0=-11283.28312127581 pbc="F F F"
C        0.04912106       1.51823689       0.05609132
C       -0.02813043       0.03338716       0.08797611
C       -1.08486780      -0.84493338      -0.02292784
C       -2.50930437      -0.58012509      -0.21332414
O       -3.36631941      -1.42548385      -0.29952383
N       -0.54513580      -2.11574936       0.08218123
N        0.67916690      -2.09147779       0.23867267
O        1.08586285      -0.64478339       0.25010684
H        0.70173620       1.84391890      -0.75965215
H       -0.93805253       1.96042274      -0.08303488
H        0.47700513       1.89320837       0.99083466
H       -2.75521434       0.50314883      -0.27547737
12
Properties=species:S:1:pos:R:3 energy_U0=-11283.123363228462 pbc="F F F"
C       -0.00399894       1.51242526       0.10313453
C        0.02912035       0.02997502      -0.02917075
C       -0.00184080      -0.79785443      -1.11831872
O        0.05314550      -2.06609739      -0.68455072
N        0.11983042      -2.00820121       0.71625241
N        0.10489052      -0.79754791       1.07307712
C       -0.07943360      -0.51921197      -2.55878027
O       -0.09874630      -1.36371772      -3.41884409
H        0.89460793       1.87138325       0.61431632
H       -0.06486786       2.00092635      -0.87111347
H       -0.86613127       1.82430781       0.70071997
H       -0.11982323       0.56400963      -2.79385585
12
Properties=species:S:1:pos:R:3 energy_U0=-11283.067715944042 pbc="F F F"
C        0.01051182       1.51214803       0.01329338
C       -0.05854045       0.02011117       0.04147127
C       -1.16189241      -0.72122707      -0.16310660
C       -1.09561348      -2.17174448      -0.10849461
O       -2.00232060      -2.94019539      -0.27156431
O        0.16896996      -2.67275966       0.16347204
N        1.30939818      -1.82859303       0.37290321
N        1.17320720      -0.60548118       0.31072092
H        0.72500513       1.84208849      -0.74813672
H       -0.96615689       1.95016543      -0.19830852
H        0.37392565       1.89094240       0.97428628
H       -2.12914887      -0.28105409      -0.37326029
12
Properties=species:S:1:pos:R:3 energy_U0=-11283.064505000491 pbc="F F F"
C       -0.03054467       1.51196338       0.01358271
C       -0.00779378       0.02018835      -0.02778401
C       -0.04287926      -0.71961111      -1.15210822
N       -0.01986983      -2.11044811      -1.14284840
N        0.03429378      -2.77326498      -0.10788994
O        0.07602650      -2.06515015       1.16122194
C        0.05766445      -0.69571985       1.25423719
O        0.09460969      -0.17365700       2.33662624
H        0.85923585       1.88852392       0.52878432
H       -0.07696384       1.94048813      -0.98951006
H       -0.88921828       1.85996010       0.59719977
H       -0.09149562      -0.28541539      -2.14381323
12
Properties=species:S:1:pos:R:3 energy_U0=-11283.548595557864 pbc="F F F"
C        0.01650597       1.50229436      -0.00060334
C       -0.05955026       0.00880253      -0.00021992
N       -1.14009671      -0.63083561      -0.26236051
C       -1.08970766      -2.02796481      -0.23158885
O       -2.04249414      -2.73578466      -0.46087556
C        0.23731994      -2.59594583       0.10795453
N        1.29435188      -1.92101845       0.36375109
O        1.14451165      -0.52966072       0.30815184
H        0.76061658       1.84077966      -0.72792554
H       -0.96212009       1.90876307      -0.25068930
H        0.33268275       1.86301960       0.98284886
H        0.35256699      -3.67536908       0.15083914
12
Properties=species:S:1:pos:R:3 energy_U0=-11283.521275326297 pbc="F F F"
C       -0.02955048       1.50090367       0.00723450
C        0.00135889       0.00354234      -0.01857044
N       -0.03555172      -0.62048155      -1.14880863
C       -0.00582784      -2.01206043      -1.14479309
O       -0.03437320      -2.70264117      -2.11577524
O        0.06393460      -2.67652975       0.10090067
N        0.10279749      -2.00986292       1.29596964
C        0.07255222      -0.72578261       1.23409896
H        0.86454347       1.89150367       0.50681855
H       -0.08115336       1.89108778      -1.00887034
H       -0.89416047       1.85368466       0.58135253
H        0.10414219      -0.21481537       2.19077754
12
Properties=species:S:1:pos:R:3 energy_U0=-11283.809579961224 pbc="F F F"
C       -0.02106385       1.47815045      -0.02962473
C       -0.06586719      -0.00385506       0.04401565
N       -1.05102882      -0.80848593      -0.21630617
C       -0.49243529      -2.04279107       0.03062148
C       -1.27414528      -3.29826548      -0.13967473
O       -0.84184554      -4.40230105       0.06008889
N        0.75887925      -2.01106255       0.41950044
O        1.04891366      -0.65434844       0.43036138
H        0.74796352       1.80458417      -0.73594009
H       -0.99235244       1.85004090      -0.35444195
H        0.22318426       1.90426544       0.94790498
H       -2.31340078      -3.10737606      -0.47528466
12
Properties=species:S:1:pos:R:3 energy_U0=-11283.50105726648 pbc="F F F"
C        0.07763339       1.46810962       0.01462047
C       -0.00162157      -0.02037376      -0.02709489
N       -0.10737410      -0.65968625      -1.14301329
C       -0.17235520      -2.03678245      -1.05774481
N       -0.14155351      -2.77845035      -0.00636618
O       -0.02764229      -2.10155871       1.20535154
C        0.04691521      -0.73194538       1.27716215
O        0.14510001      -0.20104746       2.34931815
H        1.00388766       1.78102435       0.50870811
H        0.03196246       1.87474808      -0.99546484
H       -0.73902000       1.87064539       0.62371417
H       -0.26141382      -2.58131167      -1.99187629
12
Properties=species:S:1:pos:R:3 energy_U0=-11283.41871561237 pbc="F F F"
C       -0.21444839       1.52979992       0.05603239
C        0.03276072       0.05559015      -0.02936050
N        0.02649295      -0.47874379      -1.20409545
O        0.25787956      -1.85427233      -1.27644061
C        0.48389017      -2.62081425      -0.16071870
O        0.67820692      -3.79995529      -0.26829375
C        0.46019794      -1.86858947       1.10617191
N        0.24867603      -0.60696839       1.18124260
H        0.63797218       2.02154311       0.53523132
H       -0.37047180       1.95057865      -0.93710820
H       -1.09233874       1.72295414       0.68057807
H        0.63572187      -2.44585700       2.01235650
12
Properties=species:S:1:pos:R:3 energy_U0=-11283.43474311874 pbc="F F F"
C       -0.02438201       1.53849235       0.01937275
C       -0.00285075       0.03954945      -0.01607245
N       -0.06495066      -0.53887909      -1.16815117
O       -0.04367270      -1.91649119      -1.17454819
C        0.04034997      -2.69592352      -0.01233948
O        0.05052363      -3.88053275      -0.14671523
N        0.10610496      -2.03222555       1.21783910
C        0.08476294      -0.74838098       1.19904617
H        0.88298605       1.92822761       0.49347358
H       -0.09237297       1.93387788      -0.99476231
H       -0.87943503       1.90036184       0.60069661
H        0.13583470      -0.22666853       2.15661529
12
Properties=species:S:1:pos:R:3 energy_U0=-11283.789307478635 pbc="F F F"
C       -0.00082187       1.48145685       0.03667308
C       -0.00224110      -0.00651220      -0.00338642
N       -0.08413927      -0.68286245      -1.12588731
O       -0.05328227      -2.01384268      -0.72458176
C        0.04476408      -1.99826896       0.60791834
C        0.10213367      -3.27043563       1.36983516
O        0.06583214      -4.35960220       0.86123713
N        0.08092405      -0.80189455       1.11780274
H        0.91734843       1.84568783       0.50654402
H       -0.07420939       1.88656417      -0.97326901
H       -0.84268237       1.84396657       0.63363627
H        0.18216202      -3.10325264       2.46073220
12
Properties=species:S:1:pos:R:3 energy_U0=-11283.503805616469 pbc="F F F"
C       -0.03388967       1.49126406       0.02703196
C       -0.01033355      -0.00287602      -0.01337717
N       -0.05235667      -0.56373075      -1.17109731
O       -0.02870082      -1.97019915      -1.17545930
C        0.03424053      -2.62662481      -0.01258567
N        0.07873373      -2.14716552       1.17089602
C        0.05981634      -0.75272700       1.27799007
O        0.09704054      -0.16987360       2.33703546
H        0.86056555       1.85921240       0.53882827
H       -0.08607034       1.90319578      -0.98125416
H       -0.89089175       1.82948456       0.61738234
H        0.04418303      -3.69976611      -0.19690533
12
Properties=species:S:1:pos:R:3 energy_U0=-11282.580441654503 pbc="F F F"
C       -0.02839115       1.48961925       0.05000200
C       -0.01185096      -0.00329852       0.03867614
N       -0.03967100      -0.68865389      -1.07249618
O       -0.01256839      -2.01216645      -0.69579687
N        0.03186976      -2.15092980       0.64332370
C        0.03359316      -0.93167030       1.13022904
C        0.07688562      -0.64493888       2.58350031
O        0.11311809      -1.48220359       3.44703381
H        0.86657922       1.88886565       0.53710579
H       -0.06530397       1.86639904      -0.97317346
H       -0.89930705       1.86885458       0.59343998
H        0.07312581       0.43993242       2.82221934
12
Properties=species:S:1:pos:R:3 energy_U0=-11282.071561524463 pbc="F F F"
C        0.08046395       1.46210395      -0.00499938
C       -0.01398608      -0.03069425       0.01185466
N       -0.11748835      -0.64334450      -1.12166694
O       -0.20616843      -2.02025099      -1.13440840
N       -0.19094685      -2.78710635      -0.00267121
C       -0.08825130      -2.18927541       1.13383161
C        0.01368494      -0.74335343       1.30083405
O        0.11060124      -0.18273012       2.37863163
H        1.00898396       1.78036267       0.47928402
H        0.04550653       1.83638704      -1.02823947
H       -0.73862020       1.89206271       0.57996234
H       -0.08008107      -2.83631817       2.00670144
12
Properties=species:S:1:pos:R:3 energy_U0=-11282.958081269751 pbc="F F F"
N       -0.07367352       1.27303242      -0.10457789
C       -0.00586074       0.02753734       0.03151709
O       -1.17002900      -0.69172412      -0.12128479
C       -1.14381783      -2.02869335      -0.07233950
C       -2.18105138      -2.90337604       0.02745049
C       -1.52027372      -4.15743441       0.00044610
N       -0.21777730      -4.05776525      -0.10325992
O        0.02795698      -2.66622790      -0.15643492
H        0.84231525       1.69168893       0.04564126
H        0.85989877      -0.59142605       0.26726619
H       -3.22947221      -2.67954239       0.11019952
H       -1.95675332      -5.14516367       0.05661753
12
Properties=species:S:1:pos:R:3 energy_U0=-11282.68498779961 pbc="F F F"
N       -0.01781383       1.29333927       0.32041566
C       -0.07739318       0.09915102      -0.06364054
O       -1.05704596      -0.71042912       0.43624903
C       -0.95726417      -2.04593322       0.19805756
C        0.11747167      -2.88178214       0.22334760
O       -0.28727126      -4.13376617      -0.04851453
N       -1.66265066      -4.14393923      -0.24267824
C       -2.05177724      -2.90288350      -0.09852449
H        0.73352382       1.78230441      -0.16169269
H        0.56188761      -0.41380633      -0.79216177
H        1.16811979      -2.74512824       0.42020191
H       -3.09497004      -2.64331077      -0.20265242
12
Properties=species:S:1:pos:R:3 energy_U0=-11282.977374142441 pbc="F F F"
N       -0.12009836       1.29893891       0.12278131
C       -0.02299758       0.05577776      -0.02834972
O       -1.16788994      -0.69309307       0.09774384
C       -1.06858687      -2.03811704       0.06728918
N        0.06919282      -2.68872587       0.13040802
O       -0.28980019      -4.03431425       0.07272322
C       -1.62470147      -4.12760697      -0.01212559
C       -2.19660932      -2.89958030      -0.02125935
H        0.78837764       1.73732999      -0.01759571
H        0.85897777      -0.54151218      -0.26391192
H       -2.02151115      -5.12991041      -0.05934536
H       -3.23580149      -2.62779818      -0.08196662
12
Properties=species:S:1:pos:R:3 energy_U0=-11284.215873165955 pbc="F F F"
N       -0.12000056       1.31551353      -0.00914987
C        0.05444465      -0.03210626      -0.01289617
O        1.13545999      -0.58911488      -0.02317989
C       -1.20692965      -0.82088591      -0.00333795
C       -1.41181677      -2.16521307      -0.00401974
C       -2.82529086      -2.27855550       0.00804552
N       -3.42023495      -1.10853135       0.01587871
O       -2.39080235      -0.17569484       0.00911915
H        0.69660361       1.90323675      -0.01254963
H       -1.03577740       1.73079922       0.00262632
H       -0.66203636      -2.93698164      -0.01226540
H       -3.43381796      -3.17168631       0.01141259
12
Properties=species:S:1:pos:R:3 energy_U0=-11284.096360758536 pbc="F F F"
N       -0.01889421       1.35706097       0.03733582
C        0.03100881      -0.01250639       0.11551376
O        1.07153356      -0.62469468       0.26429698
C       -1.27232436      -0.71275014       0.04829029
C       -2.55959894      -0.27098107       0.12590537
O       -3.41511757      -1.29138779       0.04320414
N       -2.69054061      -2.48278724      -0.09416437
C       -1.43583669      -2.12393084      -0.08264366
H        0.87272876       1.82176993      -0.04238622
H       -0.80607155       1.81497813      -0.39120834
H       -3.00655555       0.70292875       0.25772233
H       -0.65606469      -2.86608670      -0.16855939
12
Properties=species:S:1:pos:R:3 energy_U0=-11284.22534272829 pbc="F F F"
N       -0.07073151       1.32349199       0.00765951
C        0.05891384      -0.02652403       0.00127888
O        1.12052138      -0.62064343      -0.00999101
C       -1.23809134      -0.77379954       0.00916900
N       -2.39682226      -0.15483570       0.02096685
O       -3.35522806      -1.14920260       0.02503102
C       -2.73844600      -2.34610504       0.01564466
C       -1.39293134      -2.18679688       0.00527277
H        0.76112507       1.88890824       0.00219600
H       -0.97960838       1.75573307       0.01622972
H       -3.39074031      -3.20514847       0.01780258
H       -0.61328976      -2.92793033      -0.00380036
12
Properties=species:S:1:pos:R:3 energy_U0=-11283.718911622991 pbc="F F F"
N        0.03893885       1.35182957       0.14069629
C       -0.04818093       0.00427859       0.04815879
C       -1.12241193      -0.87330554       0.01716327
C       -2.53799956      -0.58596964       0.02222672
O       -3.41801428      -1.42110323      -0.00899267
C       -0.47540380      -2.14501699      -0.02376389
N        0.82256732      -2.07011981      -0.02015234
O        1.10098027      -0.66447282       0.02557841
H        0.92895132       1.76913614      -0.08201345
H       -0.77520893       1.89478737      -0.09413853
H       -2.79230086       0.50097407       0.05775662
H       -0.95219692      -3.11462836      -0.05620989
12
Properties=species:S:1:pos:R:3 energy_U0=-11283.264889647175 pbc="F F F"
N        0.06499722       1.43982253       0.15160120
C        0.00896330       0.06788503       0.03783825
C       -1.07728984      -0.78313276       0.00882242
O       -0.63272470      -2.07129882      -0.03631293
N        0.73256781      -2.07796390      -0.04061868
C        1.11859904      -0.82652920       0.00554568
C       -2.50263925      -0.51720930       0.01451179
O       -3.38042143      -1.34973001      -0.01566249
H        0.90381478       1.87021632      -0.20728547
H       -0.76598509       1.94624538      -0.11351699
H        2.17360703      -0.59133327       0.01547914
H       -2.73818567       0.57180921       0.05005289
12
Properties=species:S:1:pos:R:3 energy_U0=-11283.422225881168 pbc="F F F"
N        0.03389081       1.37167094       0.15050017
C       -0.05991951       0.01467117       0.05495608
C       -1.21509303      -0.70959863       0.02983865
C       -1.14242970      -2.14001264      -0.01332726
O       -2.07536569      -2.93054249      -0.04146952
C        0.26551031      -2.62832710      -0.02462090
N        1.33817110      -1.92926198      -0.00726484
O        1.17094163      -0.53607982       0.02910055
H        0.91969559       1.78007895      -0.10498333
H       -0.78376919       1.90696378      -0.09149883
H       -2.17599373      -0.21129773       0.04970055
H        0.43069383      -3.70253892      -0.05301809
12
Properties=species:S:1:pos:R:3 energy_U0=-11283.707428418089 pbc="F F F"
N        0.03669928       1.37969516      -0.11334311
C       -0.01680014       0.01657192      -0.04006391
C       -1.16056565      -0.72153535      -0.01753727
C       -1.10961416      -2.15787703       0.00654622
O       -2.03123848      -2.92810259       0.02580256
O        0.18692617      -2.73101522       0.01512511
N        1.33946212      -1.99452942      -0.00369110
C        1.23352192      -0.71327478      -0.03193724
H        0.89136376       1.84422918       0.14527678
H       -0.80565270       1.90223658       0.06520987
H       -2.14728887      -0.27434601      -0.01868891
H        2.18249255      -0.18377560      -0.05285212
12
Properties=species:S:1:pos:R:3 energy_U0=-11283.390170868432 pbc="F F F"
N        0.02183227       1.38212429       0.15512783
C       -0.08394373       0.02100854       0.05540448
C       -1.13785494      -0.85121213       0.03542714
C       -0.50057289      -2.12072652      -0.00304330
C       -1.18484361      -3.43819493      -0.03638495
O       -0.63539617      -4.50834038      -0.07303696
N        0.81433802      -2.03275042      -0.00788143
O        1.07374355      -0.65919035       0.02790681
H        0.90642823       1.76123002      -0.15082710
H       -0.77441308       1.90437486      -0.17577517
H       -2.19137877      -0.62993670       0.05267460
H       -2.29424886      -3.35262884      -0.02502364
12
Properties=species:S:1:pos:R:3 energy_U0=-11283.864356481292 pbc="F F F"
N        0.03731375       1.32963140      -0.16088080
C       -0.05768223      -0.00888902      -0.03640271
C       -1.18476788      -0.77139207       0.05271916
C       -1.02404344      -2.17936248       0.15925798
N        0.09053804      -2.83573020       0.18465922
O        1.25184471      -2.04279023       0.09830105
C        1.25485611      -0.69194852      -0.00674618
O        2.30378707      -0.09274341      -0.06900220
H        0.96553138       1.72278119      -0.15331935
H       -0.76624072       1.92937472      -0.11377242
H       -2.17843137      -0.33855181       0.04147158
H       -1.89537325      -2.82475213       0.22929900
12
Properties=species:S:1:pos:R:3 energy_U0=-11283.363884669532 pbc="F F F"
N        0.20106979       1.32992214      -0.30299158
C        0.04126066      -0.01910206      -0.06638473
C       -1.07214631      -0.80686268      -0.00744791
O       -0.72238995      -2.07484581       0.33729826
N        0.62199843      -2.15218460       0.51505110
C        1.08841158      -0.93848535       0.27298378
C        2.52315331      -0.66306605       0.33130482
O        2.99499375       0.42472760       0.06568646
H        1.15912312       1.58600553      -0.50062187
H       -0.47369292       1.75891084      -0.91717328
H       -2.12333082      -0.63707317      -0.16980101
H        3.15617240      -1.52200903       0.62499369
12
Properties=species:S:1:pos:R:3 energy_U0=-11283.175581878244 pbc="F F F"
N        0.01564957       1.38396492       0.13666343
C       -0.04621222       0.01466436       0.04445436
C       -1.17331808      -0.74176998       0.01576405
O       -1.18614589      -2.09429143      -0.02164327
N       -0.02411535      -2.81515739      -0.03125525
C        1.08158498      -2.14259432      -0.01221146
C        1.23073445      -0.69080840       0.01609705
O        2.31090080      -0.10920820       0.00498269
H        0.93904997       1.73597439      -0.08218502
H       -0.74842169       1.92457304      -0.23581957
H       -2.18551270      -0.35493311       0.02191001
H        1.98033381      -2.75222631      -0.02824732
12
Properties=species:S:1:pos:R:3 energy_U0=-11283.629386162971 pbc="F F F"
N        0.04240637       1.40182503       0.14622472
C        0.01181405       0.02050748       0.03188859
N       -1.15219366      -0.55017115       0.00261310
O       -1.17760264      -1.94583393       0.00793247
C       -0.05523035      -2.74708636      -0.02161070
O       -0.20225398      -3.94125501      -0.04099671
C        1.22621472      -2.04478771      -0.02053477
C        1.26319358      -0.70559536       0.01422091
H        0.76657633       1.86086834      -0.38792804
H       -0.86540063       1.82914617       0.01570436
H        2.11320287      -2.66590159      -0.03769518
H        2.19687837      -0.15230717       0.03893448
12
Properties=species:S:1:pos:R:3 energy_U0=-11283.435532248934 pbc="F F F"
N       -0.00481548       1.39247343       0.14901148
C        0.03468121       0.01715770       0.04009536
N       -1.07535342      -0.69814319       0.00724519
O       -0.67565974      -2.02861352      -0.01408997
C        0.66512661      -2.07936290      -0.01042309
C        1.33907016      -3.38479365      -0.03610585
O        0.77828582      -4.45209891      -0.06131165
C        1.18765180      -0.82000919       0.02432776
H        0.73213359       1.87823725      -0.34046140
H       -0.91625756       1.78262429      -0.04948031
H        2.44648199      -3.29638642      -0.03018539
H        2.22634047      -0.53302166       0.04814605
12
Properties=species:S:1:pos:R:3 energy_U0=-11283.519506586204 pbc="F F F"
N        0.03845657       1.36891388       0.13937433
C        0.04216736      -0.00379707       0.03072634
N       -1.08246085      -0.68553093       0.01871630
O       -0.69047162      -2.04235500      -0.01165889
C        0.62837603      -2.11467830      -0.03400313
C        1.19271211      -0.86899356      -0.00717310
C        2.61319479      -0.54261882       0.00966431
O        3.50530645      -1.36090679      -0.03911312
H        0.77234219       1.84663758      -0.36168702
H       -0.87029359       1.78315388      -0.01773270
H        1.06585556      -3.10113120      -0.06230878
H        2.84211883       0.54441205       0.07837573
12
Properties=species:S:1:pos:R:3 energy_U0=-11283.53836407672 pbc="F F F"
N        0.04014889       1.32406605       0.08250687
C       -0.03411170      -0.02264818       0.02758123
N       -1.20146422      -0.60449123       0.00877368
O       -1.19150238      -2.00550396      -0.00298889
C       -0.05226323      -2.68418707      -0.00474273
C        1.18531889      -2.13611319      -0.00411941
C        1.30007496      -0.70863607       0.00220273
O        2.32589339      -0.03928140      -0.01842479
H        0.96179804       1.70889569      -0.05778403
H       -0.78050509       1.88567160      -0.06117104
H       -0.24863339      -3.75177590      -0.01029275
H        2.06965896      -2.75900242      -0.01369737
12
Properties=species:S:1:pos:R:3 energy_U0=-11282.899114196234 pbc="F F F"
O       -0.21335227      -0.10862179      -0.03885185
C       -0.10818991       1.07613426       0.07531049
O       -1.10550625       2.00304177      -0.21300571
N       -0.68126507       3.36484418       0.02402955
C        0.52383257       3.18253080       0.43373554
C        1.84934173       3.73185956       0.93265967
C        2.29050111       2.21265301       0.98781648
N        0.93040648       1.89335818       0.49209659
H        2.39548796       4.34590227       0.21609731
H        1.80774180       4.23631235       1.89836197
H        3.08275366       1.92679549       0.29446652
H        2.49276976       1.81675240       1.98403890
12
Properties=species:S:1:pos:R:3 energy_U0=-11282.997973161662 pbc="F F F"
O       -0.47663722       0.42661148       0.65836430
C        0.10045437       0.88927201      -0.28563062
C        1.28514147       1.85342198      -0.15526067
C        1.23261888       2.95959591      -1.14836920
C        1.01878459       4.30056592      -1.04649755
N        1.05446994       4.80966822      -2.32217005
N        1.26226921       3.90513439      -3.16388978
O        1.38741509       2.65924201      -2.43780359
H       -0.17353547       0.63440743      -1.33126990
H        1.31248715       2.24069441       0.86468083
H        2.19454002       1.25946796      -0.32209467
H        0.85058941       4.92098647      -0.18332990
12
Properties=species:S:1:pos:R:3 energy_U0=-11282.95239409007 pbc="F F F"
O       -0.39102658       0.69832186       0.89489486
C        0.07324258       1.04217194      -0.15788930
C        1.43043968       1.72938510      -0.30450776
C        1.37382390       2.90067261      -1.22788143
C        1.31915629       4.23918301      -0.99365686
O        1.25260065       4.88446155      -2.15380641
N        1.25995985       3.87949921      -3.17023488
N        1.32943173       2.76134464      -2.60220133
H       -0.45979182       0.87406174      -1.11904260
H        1.78297951       2.01422196       0.68899420
H        2.12604827       0.98536860      -0.71458156
H        1.32690242       4.83498294      -0.09552054
12
Properties=species:S:1:pos:R:3 energy_U0=-11283.632787586224 pbc="F F F"
O       -0.32928096       0.04759496       0.22343440
C       -0.05571498       1.19846693       0.02733345
C        1.33630803       1.66071119      -0.42047700
C        1.27244027       2.82274750      -1.34693688
N        0.68936456       3.96985736      -1.15196629
C        0.92844877       4.60960218      -2.34348321
N        1.60779222       3.92298401      -3.21939429
O        1.84005527       2.71166922      -2.55373746
H       -0.78443043       2.02135640       0.17805019
H        1.86812733       1.96680180       0.49075426
H        1.87452528       0.82374638      -0.86699550
H        0.58846244       5.61188309      -2.55958677
12
Properties=species:S:1:pos:R:3 energy_U0=-11283.609930021965 pbc="F F F"
O       -0.24708269       0.05456777       0.27646600
C       -0.03172442       1.20862458       0.02527110
C        1.36188329       1.75334358      -0.28896999
C        1.33734453       2.82822617      -1.32194006
N        1.97416464       2.72936318      -2.45962710
O        1.66788245       3.93244414      -3.10931730
C        0.87506234       4.60923073      -2.28122275
N        0.62471194       4.00267993      -1.16521343
H       -0.83649355       1.97372755       0.02850473
H        1.74576133       2.17855241       0.64909361
H        2.01484431       0.93277267      -0.58889071
H        0.52709439       5.57717923      -2.61107716
12
Properties=species:S:1:pos:R:3 energy_U0=-11282.488793706374 pbc="F F F"
O       -0.38781823       0.96336514       1.03014448
C        0.05846707       1.17051074      -0.06456061
C        1.46691261       1.70643309      -0.32444101
C        1.45041832       2.88229791      -1.24799202
N        1.68031110       2.77050859      -2.53127134
O        1.54520032       4.02496217      -3.04982697
N        1.22692261       4.93368912      -2.08142652
C        1.16173504       4.25155224      -0.97308102
H       -0.52889864       0.97439732      -0.98807664
H        1.92615444       1.95237446       0.63575501
H        2.04180117       0.90100160      -0.79663375
H        0.92404423       4.73093108      -0.03589971
12
Properties=species:S:1:pos:R:3 energy_U0=-11283.717034037354 pbc="F F F"
O       -0.27935837      -0.01733157       0.00263007
C       -0.08398320       1.16771221       0.00854998
N        1.15233112       1.79438904       0.00157016
C        2.41021664       1.22138306      -0.01280974
C        3.64263851       1.81415355      -0.01860089
C        4.51725549       0.70047182      -0.03387865
N        3.88428414      -0.44595599      -0.03720551
O        2.51826789      -0.10734871      -0.02350918
H       -0.88923938       1.92792566       0.01987924
H        1.14322339       2.80306286       0.00810466
H        3.88017242       2.86406449      -0.01279350
H        5.59829915       0.69610404      -0.04273654
12
Properties=species:S:1:pos:R:3 energy_U0=-11283.739755544684 pbc="F F F"
O       -0.22934975       0.01357881       0.00008742
C       -0.07522080       1.21435762       0.00801834
N        1.14109280       1.83959214       0.00132888
C        2.36698636       1.17272766      -0.01513657
C        2.63547527      -0.16485913      -0.02840217
O        3.96805677      -0.35116101      -0.04201176
N        4.61093446       0.87215509      -0.03785102
C        3.65786835       1.77065547      -0.02179782
H       -0.90834504       1.94083072       0.02122472
H        1.15514386       2.84733065       0.00867342
H        2.01072277      -1.03908547      -0.02980054
H        3.91728058       2.82030425      -0.01555963
12
Properties=species:S:1:pos:R:3 energy_U0=-11283.940766053249 pbc="F F F"
O       -0.31622362       0.03852042       0.00229229
C       -0.09279738       1.22628764       0.00852466
N        1.15128232       1.80421768       0.00149197
C        2.36547430       1.13062658      -0.01360888
N        3.47306472       1.84144887      -0.01772131
O        4.50110435       0.90640232      -0.03322796
C        3.97022677      -0.32388665      -0.03782820
C        2.61515809      -0.27229035      -0.02604982
H       -0.88678451       1.99585251       0.02096188
H        1.21273898       2.81234953       0.00821647
H        4.67694742      -1.13918269      -0.04978695
H        1.89274327      -1.06656512      -0.02575699
12
Properties=species:S:1:pos:R:3 energy_U0=-11284.271738141462 pbc="F F F"
O        0.32507950      -0.08679704      -0.13605398
C        0.53466897       1.05780159      -0.37105020
O        0.38461256       2.02726299       0.59061668
C        0.74604738       3.30007339       0.26415711
C        1.87515276       3.84355089      -0.30790958
C        1.60175437       5.23122183      -0.31855897
N        0.41622346       5.52022036       0.20579391
N       -0.09652989       4.31889263       0.54908480
H        0.85722933       1.48334692      -1.33611842
H        2.76048604       3.32496054      -0.63506979
H        2.23226401       6.02852249      -0.68350336
H       -0.99877055       4.25653662       0.99106193
12
Properties=species:S:1:pos:R:3 energy_U0=-11284.202349107101 pbc="F F F"
O        0.02950040      -0.05949561      -0.07670509
C        0.12631864       1.11093047      -0.26857732
O        0.94258473       1.90117308       0.48467830
C        0.92487013       3.25296914       0.23071118
C        2.02443562       4.02011458      -0.09282451
N        1.55452559       5.28655944      -0.18975349
N        0.23568639       5.39428452       0.04257807
C       -0.16018914       4.15194199       0.30743226
H       -0.40548329       1.68565310      -1.04794792
H        3.05921701       3.76134113      -0.24316261
H        2.07865575       6.11830494      -0.40339506
H       -1.19177185       3.94454633       0.54892386
12
Properties=species:S:1:pos:R:3 energy_U0=-11284.426761407643 pbc="F F F"
O       -0.07470327       0.02635619       0.11412920
C       -0.00238423       1.19837484      -0.07972573
O        1.06012837       1.93016436       0.37808383
C        1.02466497       3.28583415       0.22271965
N       -0.09915988       3.97785914       0.34284443
N        0.29760163       5.25320778       0.14282046
C        1.62767015       5.36947686      -0.07694292
C        2.14922992       4.09383081      -0.03681735
H       -0.72960187       1.81637410      -0.62738560
H       -0.38872077       5.98583382       0.19673524
H        2.09353116       6.32788450      -0.24236568
H        3.17072158       3.78399982      -0.17410989
12
Properties=species:S:1:pos:R:3 energy_U0=-11283.256454117507 pbc="F F F"
O        0.07405207       1.31562113      -0.16703851
C       -0.02060564      -0.00213915      -0.04400306
C       -1.16955354      -0.70201226       0.07797721
C       -1.04780316      -2.12352650       0.19914323
N        0.04095835      -2.81602073       0.20510343
O        1.23667980      -2.07200907       0.07674400
C        1.25708616      -0.72281102      -0.04529056
N        2.32356263      -0.03451192      -0.16181876
H        1.03768076       1.48988012      -0.23239833
H       -2.13950286      -0.22321028       0.08504755
H       -1.93719557      -2.73949219       0.30021478
H        3.16933963      -0.60031284      -0.15462085
12
Properties=species:S:1:pos:R:3 energy_U0=-11283.906996723192 pbc="F F F"
O        0.08000313       1.36911732      -0.09949307
C        0.06032235       0.02174887      -0.03552495
C       -0.03208683      -0.75124027      -1.19187162
N       -0.05605910      -2.08381475      -1.19606498
N        0.01029309      -2.74657940      -0.04687338
C        0.10006959      -2.06338707       1.09483177
C        0.12966808      -0.67475012       1.16680437
O        0.22024005       0.06090020       2.30847841
H        0.14748828       1.71515744       0.79998340
H       -0.08914140      -0.26293241      -2.15988794
H        0.15100369      -2.66387623       2.00174837
H        0.26289718      -0.51997065       3.07565667
12
Properties=species:S:1:pos:R:3 energy_U0=-11284.465156673323 pbc="F F F"
O        0.11063392       1.30600106       0.06726054
C        0.06997801      -0.03292413       0.06395598
N        0.08772193      -0.73215162      -1.05024403
N        0.03316634      -2.03177689      -0.62239536
C        0.03088230      -3.11659278      -1.50010972
O        0.07528335      -3.04156736      -2.69436226
C       -0.01750884      -2.11657268       0.75000112
C        0.00416663      -0.84403547       1.23751590
H        0.15174319       1.59634744      -0.85415495
H       -0.01763002      -4.06391212      -0.93054628
H       -0.06401249      -3.07371700       1.24564598
H       -0.02185724      -0.51842993       2.26345365
12
Properties=species:S:1:pos:R:3 energy_U0=-11284.445646109545 pbc="F F F"
O        0.04797867       1.31843580       0.06693680
C        0.06225119      -0.03059226       0.05918249
N        0.16357831      -0.63283856      -1.11066743
N        0.18162434      -1.96861133      -1.16708135
C        0.09790749      -2.66984568      -0.05228154
O        0.12012279      -4.01461705      -0.15828714
C       -0.01195455      -2.08871973       1.22503902
C       -0.03045815      -0.72007920       1.28283997
H        0.12062134       1.59199737      -0.85915872
H        0.19909280      -4.20707531      -1.10406161
H       -0.07743223      -2.71442115       2.10662586
H       -0.11180444      -0.17291801       2.21395887
12
Properties=species:S:1:pos:R:3 energy_U0=-11284.65299687105 pbc="F F F"
O       -0.00969319       1.34058972       0.00983759
C        0.02601902      -0.00992613       0.00263893
N        1.17423738      -0.60976762      -0.00739010
N        1.13993698      -1.96238944      -0.01417074
C        0.02957911      -2.80117996      -0.01183040
O        0.14945288      -4.01467622      -0.01880843
C       -1.22633622      -2.05191803      -0.00034987
C       -1.23018197      -0.70130882       0.00665520
H        0.90630516       1.64995332       0.00589874
H        2.04608904      -2.40963235      -0.02195914
H       -2.13693880      -2.63867096       0.00212157
H       -2.14474961      -0.11892218       0.01519213
12
Properties=species:S:1:pos:R:3 energy_U0=-11284.400121460725 pbc="F F F"
O        0.07417604       1.33561231       0.02072280
C        0.06690947      -0.00864597       0.07861090
N        0.09879565      -0.75667932      -1.02514377
N        0.07930341      -2.01947851      -0.57002771
C        0.03615796      -2.09327169       0.78362034
C        0.00937212      -3.38181576       1.46509439
O        0.02387279      -4.44307988       0.87742860
C        0.02667221      -0.78419037       1.25097953
H        0.10467244       1.58456581      -0.91180460
H        0.09624457      -2.80130906      -1.20436966
H       -0.02525967      -3.32447065       2.57193157
H       -0.00430587      -0.44630675       2.27302469
12
Properties=species:S:1:pos:R:3 energy_U0=-11284.392257370164 pbc="F F F"
O        0.11501793       1.32275649       0.06272413
C        0.07834877      -0.01928232       0.05102649
N        0.08011773      -0.71259179      -1.07418360
N        0.03667025      -2.00897485      -0.64964889
C        0.00852303      -2.13424308       0.68279489
C        0.03419464      -0.84635716       1.20900684
C        0.01864237      -0.46654185       2.61327180
O       -0.02009099      -1.25624040       3.53468310
H        0.14021252       1.62177317      -0.85564558
H        0.02942320      -2.73980502      -1.34065528
H       -0.02697154      -3.08897339       1.18253983
H        0.04539787       0.62829331       2.79480464
12
Properties=species:S:1:pos:R:3 energy_U0=-11283.079688953892 pbc="F F F"
O       -0.06654190       1.29147348      -0.33271925
C        0.01169594      -0.01630603      -0.01952676
N        1.17882596      -0.53470937       0.13476692
O        1.22561560      -1.89860476       0.46044665
C        0.09372028      -2.67749610       0.61565033
N        0.18862433      -3.91013581       0.91139993
C       -1.18983687      -2.02140830       0.42554033
C       -1.24399692      -0.72006708       0.11454897
H        0.83916112       1.63002656      -0.38921292
H        1.16826521      -4.18518807       1.00283014
H       -2.06754924      -2.64269573       0.55003726
H       -2.16754310      -0.17609574      -0.03935929
